19

C     -2.504699   -0.818769    0.057247
N     -1.412879    0.118772   -0.079941
C     -1.559912    1.454897   -0.344138
C     -0.303428    2.013506   -0.401440
C      0.642691    0.979442   -0.163402
C      2.049485    0.941991   -0.099426
C      2.694620   -0.271735    0.161201
C      1.958949   -1.437308    0.356832
C      0.561890   -1.425708    0.298245
C     -0.076012   -0.202720    0.036119
H     -2.464298   -1.252482    1.059681
H     -2.393113   -1.593668   -0.705440
H     -3.455404   -0.297708   -0.081809
H     -2.537162    1.902008   -0.469975
H     -0.084860    3.055323   -0.594003
H      2.629603    1.847233   -0.251009
H      3.780080   -0.302196    0.210867
H      2.477457   -2.371786    0.558376
H     -0.003010   -2.339091    0.452016
