19
 energy: -26.799446545354 gnorm: 0.000163145889 xtb: 6.7.1 (edcfbbe)
C           -2.49177282037859       -0.82835765958255        0.05729846582156
N           -1.40618214640723        0.10299656683837       -0.07391360734783
C           -1.51973239865787        1.43793820965316       -0.33796555909051
C           -0.28944154903878        2.02062317044784       -0.40001886059179
C            0.66297383378256        0.99235261859578       -0.16278432998585
C            2.05647133749723        0.95158257763073       -0.10280922828331
C            2.67092489413756       -0.25316500285294        0.15405485165663
C            1.92733011440057       -1.42090080324708        0.35336435292962
C            0.55015538126405       -1.41279428496367        0.30000124081882
C           -0.07903854691559       -0.20005628124236        0.03950897789459
H           -2.48558314346449       -1.28652914877891        1.04932791287454
H           -2.41043189366229       -1.61907282505829       -0.69259385891497
H           -3.43417872545252       -0.30287210188714       -0.08370478401657
H           -2.48845359785179        1.88434314074813       -0.46407858443102
H           -0.07942779442687        3.05455077614863       -0.59174558301095
H            2.63646172026598        1.85069524192260       -0.25580610726153
H            3.74946074453982       -0.30593771672683        0.20448397278374
H            2.44770108175591       -2.34679115317589        0.55306638503880
H           -0.01723849138763       -2.31860432446958        0.45431534311603
