      -----------------------------------------------------------      
     |                   =====================                   |     
     |                           x T B                           |     
     |                   =====================                   |     
     |                         S. Grimme                         |     
     |          Mulliken Center for Theoretical Chemistry        |     
     |                    University of Bonn                     |     
      -----------------------------------------------------------      

   * xtb version 6.7.1 (edcfbbe) compiled by 'VssAdministrator@runnervm171ch' on 2026-06-10

   xtb is free software: you can redistribute it and/or modify it under
   the terms of the GNU Lesser General Public License as published by
   the Free Software Foundation, either version 3 of the License, or
   (at your option) any later version.
   
   xtb is distributed in the hope that it will be useful,
   but WITHOUT ANY WARRANTY; without even the implied warranty of
   MERCHANTABILITY or FITNESS FOR A PARTICULAR PURPOSE.  See the
   GNU Lesser General Public License for more details.
   
   Cite this work as:
   * C. Bannwarth, E. Caldeweyher, S. Ehlert, A. Hansen, P. Pracht,
     J. Seibert, S. Spicher, S. Grimme, WIREs Comput. Mol. Sci., 2020, 11,
     e01493. DOI: 10.1002/wcms.1493
   
   for GFN2-xTB:
   * C. Bannwarth, S. Ehlert and S. Grimme., J. Chem. Theory Comput., 2019,
     15, 1652-1671. DOI: 10.1021/acs.jctc.8b01176
   for GFN1-xTB:
   * S. Grimme, C. Bannwarth, P. Shushkov, J. Chem. Theory Comput., 2017,
     13, 1989-2009. DOI: 10.1021/acs.jctc.7b00118
   for GFN0-xTB:
   * P. Pracht, E. Caldeweyher, S. Ehlert, S. Grimme, ChemRxiv, 2019, preprint.
     DOI: 10.26434/chemrxiv.8326202.v1
   for GFN-FF:
   * S. Spicher and S. Grimme, Angew. Chem. Int. Ed., 2020, 59, 15665-15673.
     DOI: 10.1002/anie.202004239
   
   for ALPB and GBSA implicit solvation:
   * S. Ehlert, M. Stahn, S. Spicher, S. Grimme, J. Chem. Theory Comput.,
     2021, 17, 4250-4261. DOI: 10.1021/acs.jctc.1c00471
   
   for ddCOSMO and CPCM-X implicit solvation:
   * M. Stahn, S. Ehlert, S. Grimme, J. Phys. Chem. A,
     2023, XX, XXXX-XXXX. DOI: 10.1021/acs.jpca.3c04382
   
   for DFT-D4:
   * E. Caldeweyher, C. Bannwarth and S. Grimme, J. Chem. Phys., 2017,
     147, 034112. DOI: 10.1063/1.4993215
   * E. Caldeweyher, S. Ehlert, A. Hansen, H. Neugebauer, S. Spicher,
     C. Bannwarth and S. Grimme, J. Chem. Phys., 2019, 150, 154122.
     DOI: 10.1063/1.5090222
   * E. Caldeweyher, J.-M. Mewes, S. Ehlert and S. Grimme, Phys. Chem. Chem. Phys.
     2020, 22, 8499-8512. DOI: 10.1039/D0CP00502A
   
   for sTDA-xTB:
   * S. Grimme and C. Bannwarth, J. Chem. Phys., 2016, 145, 054103.
     DOI: 10.1063/1.4959605
   
   in the mass-spec context:
   * V. Asgeirsson, C. Bauer and S. Grimme, Chem. Sci., 2017, 8, 4879.
     DOI: 10.1039/c7sc00601b
   * J. Koopman and S. Grimme, ACS Omega 2019, 4, 12, 15120-15133.
     DOI: 10.1021/acsomega.9b02011
   
   for metadynamics refer to:
   * S. Grimme, J. Chem. Theory Comput., 2019, 155, 2847-2862
     DOI: 10.1021/acs.jctc.9b00143
   
   for SPH calculations refer to:
   * S. Spicher and S. Grimme, J. Chem. Theory Comput., 2021, 17, 1701-1714
     DOI: 10.1021/acs.jctc.0c01306
   
   for ONIOM refer to:
   * C. Plett, A. Katbashev, S. Ehlert, S. Grimme, M. Bursch,
     Phys. Chem. Chem. Phys., 2023, 25, 17860-17868. DOI: 10.1039/D3CP02178E
   
   for DIPRO refer to:
   * J. Kohn, N. Gildemeister, S. Grimme, D. Fazzi, A. Hansen,
     J. Chem. Phys., 2023, just accepted.
   
   for PTB refer to:
   * S. Grimme, M. Mueller, A. Hansen, J. Chem. Phys., 2023, 158, 124111.
     DOI: 10.1063/5.0137838
   
   with help from (in alphabetical order)
   P. Atkinson, C. Bannwarth, F. Bohle, G. Brandenburg, E. Caldeweyher
   M. Checinski, S. Dohm, S. Ehlert, S. Ehrlich, I. Gerasimov, C. Hölzer
   A. Katbashev, J. Kohn, J. Koopman, C. Lavigne, S. Lehtola, F. März, M. Müller,
   F. Musil, H. Neugebauer, J. Pisarek, C. Plett, P. Pracht, F. Pultar,
   J. Seibert, P. Shushkov, S. Spicher, M. Stahn, M. Steiner, T. Strunk,
   J. Stückrath, T. Rose, and J. Unsleber
   
 * started run on 2026/09/27 at 14:01:45.156     
   ID    Z sym.   atoms
    1    6 C      1-3, 5, 6
    2    7 N      4
    3    1 H      7-11

           -------------------------------------------------
          |                Calculation Setup                |
           -------------------------------------------------

          program call               : xtb input.xyz --gfn 2 --alpb acetonitrile --chrg -1 --uhf 1 --scc --json --parallel 1 --norestart
          coordinate file            : input.xyz
          omp threads                :                     1


           -------------------------------------------------
          |                 G F N 2 - x T B                 |
           -------------------------------------------------

        Reference                      10.1021/acs.jctc.8b01176
      * Hamiltonian:
        H0-scaling (s, p, d)           1.850000    2.230000    2.230000
        zeta-weighting                 0.500000
      * Dispersion:
        s8                             2.700000
        a1                             0.520000
        a2                             5.000000
        s9                             5.000000
      * Repulsion:
        kExp                           1.500000    1.000000
        rExp                           1.000000
      * Coulomb:
        alpha                          2.000000
        third order                    shell-resolved
        anisotropic                    true
        a3                             3.000000
        a5                             4.000000
        cn-shift                       1.200000
        cn-exp                         4.000000
        max-rad                        5.000000

      * Solvation model:               ALPB
        Solvent                        acetonitrile
        Parameter file                 internal GFN2-xTB/ALPB
        Dielectric constant                3.7500E+01
        Reference state                gsolv [1 M gas/solution]
        Free energy shift                  5.1987E-03 Eh       3.2622E+00 kcal/mol
        Temperature                        2.9815E+02 K
        Density                            7.8600E-01 kg/L
        Solvent mass                       4.1050E+01 g/mol
        Interaction kernel             P16
        Born radius scaling (c1)           1.7214E+00
        Born radii integrator          GBOBC
        Born offset                        0.0000E+00 a0       0.0000E+00 AA
        H-bond correction              true
        Ion screening                  false
        Surface tension                    1.0000E-05 Eh       1.5569E+01 dyn/cm
        Grid points                               230 per atom

          ...................................................
          :                      SETUP                      :
          :.................................................:
          :  # basis functions                  29          :
          :  # atomic orbitals                  29          :
          :  # shells                           17          :
          :  # electrons                        31          :
          :  max. iterations                   250          :
          :  Hamiltonian                  GFN2-xTB          :
          :  restarted?                      false          :
          :  GBSA solvation                   true          :
          :  PC potential                    false          :
          :  electronic temp.          300.0000000     K    :
          :  accuracy                    1.0000000          :
          :  -> integral cutoff          0.2500000E+02      :
          :  -> integral neglect         0.1000000E-07      :
          :  -> SCF convergence          0.1000000E-05 Eh   :
          :  -> wf. convergence          0.1000000E-03 e    :
          :  Broyden damping             0.4000000          :
          :  net charge                         -1          :
          :  unpaired electrons                  1          :
          ...................................................

 iter      E             dE          RMSdq      gap      omega  full diag
   1    -16.6262913 -0.166263E+02  0.393E+00    0.19       0.0  T
   2    -16.6095219  0.167694E-01  0.270E+00    0.08       1.0  T
   3    -16.6225156 -0.129937E-01  0.250E+00    0.48       1.0  T
   4    -16.6326885 -0.101729E-01  0.145E+00    0.27       1.0  T
   5    -16.6364203 -0.373181E-02  0.103E+00    0.21       1.0  T
   6    -16.6393566 -0.293630E-02  0.506E-01    0.12       1.0  T
   7    -16.6399773 -0.620652E-03  0.209E-01    0.08       1.0  T
   8    -16.6400892 -0.111952E-03  0.150E-01    0.08       1.0  T
   9    -16.6401927 -0.103453E-03  0.587E-02    0.08       1.0  T
  10    -16.6401987 -0.599389E-05  0.435E-02    0.07       1.0  T
  11    -16.6402056 -0.690393E-05  0.130E-02    0.07       2.3  T
  12    -16.6402062 -0.616268E-06  0.377E-03    0.08       8.0  T
  13    -16.6402063 -0.455302E-07  0.166E-03    0.08      18.1  T
  14    -16.6402063 -0.104418E-07  0.411E-04    0.08      73.3  T
  15    -16.6402063 -0.575088E-09  0.163E-04    0.08     185.5  T

   *** convergence criteria satisfied after 15 iterations ***

         #    Occupation            Energy/Eh            Energy/eV
      -------------------------------------------------------------
         1        2.0000           -0.5626048             -15.3093
       ...           ...                  ...                  ...
        10        2.0000           -0.4042208             -10.9994
        11        2.0000           -0.3880626             -10.5597
        12        2.0000           -0.3622135              -9.8563
        13        2.0000           -0.3342582              -9.0956
        14        2.0000           -0.3235011              -8.8029
        15        2.0000           -0.2774486              -7.5498
        16        0.8123           -0.1481456              -4.0312 (HOMO)
        17        0.1877           -0.1453617              -3.9555 (LUMO)
        18                         -0.0156778              -0.4266
        19                          0.1798885               4.8950
        20                          0.1941888               5.2841
        21                          0.2237686               6.0891
       ...                                ...                  ...
        29                          0.7078970              19.2629
      -------------------------------------------------------------
                  HL-Gap            0.0027839 Eh            0.0758 eV
             Fermi-level           -0.1797754 Eh           -4.8919 eV

 SCC (total)                   0 d,  0 h,  0 min,  0.017 sec
 SCC setup                      ...        0 min,  0.001 sec (  4.520%)
 Dispersion                     ...        0 min,  0.000 sec (  0.818%)
 classical contributions        ...        0 min,  0.000 sec (  0.217%)
 integral evaluation            ...        0 min,  0.001 sec (  6.197%)
 iterations                     ...        0 min,  0.011 sec ( 65.578%)
 molecular gradient             ...        0 min,  0.003 sec ( 19.339%)
 printout                       ...        0 min,  0.001 sec (  3.169%)

         :::::::::::::::::::::::::::::::::::::::::::::::::::::
         ::                     SUMMARY                     ::
         :::::::::::::::::::::::::::::::::::::::::::::::::::::
         :: total energy             -16.355603939857 Eh    ::
         :: total w/o Gsasa/hb       -16.348478298835 Eh    ::
         :: gradient norm              0.100318704843 Eh/a0 ::
         :: HOMO-LUMO gap              0.075754630429 eV    ::
         ::.................................................::
         :: SCC energy               -16.640201859530 Eh    ::
         :: -> isotropic ES            0.127764156458 Eh    ::
         :: -> anisotropic ES          0.014520531878 Eh    ::
         :: -> anisotropic XC          0.011329469147 Eh    ::
         :: -> dispersion             -0.008895164673 Eh    ::
         :: -> Gsolv                  -0.080308333191 Eh    ::
         ::    -> Gelec               -0.073182692170 Eh    ::
         ::    -> Gsasa               -0.011713028394 Eh    ::
         ::    -> Ghb                 -0.000611267379 Eh    ::
         ::    -> Gshift               0.005198654751 Eh    ::
         :: repulsion energy           0.284597919674 Eh    ::
         :: add. restraining           0.000000000000 Eh    ::
         :: total charge              -1.000000000000 e     ::
         :::::::::::::::::::::::::::::::::::::::::::::::::::::

           -------------------------------------------------
          |                Property Printout                |
           -------------------------------------------------

    * Orbital Energies and Occupations

         #    Occupation            Energy/Eh            Energy/eV
      -------------------------------------------------------------
         1        2.0000           -0.5626048             -15.3093
       ...           ...                  ...                  ...
         4        2.0000           -0.5038955             -13.7117
         5        2.0000           -0.4961569             -13.5011
         6        2.0000           -0.4618346             -12.5672
         7        2.0000           -0.4366805             -11.8827
         8        2.0000           -0.4174252             -11.3587
         9        2.0000           -0.4107326             -11.1766
        10        2.0000           -0.4042208             -10.9994
        11        2.0000           -0.3880626             -10.5597
        12        2.0000           -0.3622135              -9.8563
        13        2.0000           -0.3342582              -9.0956
        14        2.0000           -0.3235011              -8.8029
        15        2.0000           -0.2774486              -7.5498
        16        0.8123           -0.1481456              -4.0312 (HOMO)
        17        0.1877           -0.1453617              -3.9555 (LUMO)
        18                         -0.0156778              -0.4266
        19                          0.1798885               4.8950
        20                          0.1941888               5.2841
        21                          0.2237686               6.0891
        22                          0.2530500               6.8858
        23                          0.2555099               6.9528
        24                          0.3907906              10.6340
        25                          0.4715604              12.8318
        26                          0.5094805              13.8637
        27                          0.5218173              14.1994
       ...                                ...                  ...
        29                          0.7078970              19.2629
      -------------------------------------------------------------
                  HL-Gap            0.0027839 Eh            0.0758 eV
             Fermi-level           -0.1797754 Eh           -4.8919 eV

     #   Z          covCN         q      C6AA      α(0)
     1   6 C        2.929    -0.097    30.447     9.049
     2   6 C        2.914    -0.087    30.193     9.010
     3   6 C        2.913     0.019    27.586     8.613
     4   7 N        1.835    -0.401    31.367     8.300
     5   6 C        2.913     0.019    27.587     8.613
     6   6 C        2.914    -0.087    30.192     9.010
     7   1 H        0.926    -0.078     4.858     3.447
     8   1 H        0.926    -0.067     4.543     3.333
     9   1 H        0.925    -0.076     4.790     3.423
    10   1 H        0.925    -0.076     4.790     3.423
    11   1 H        0.926    -0.067     4.542     3.333

 Mol. C6AA /au·bohr⁶  :       1885.822347
 Mol. C8AA /au·bohr⁸  :      43740.752433
 Mol. α(0) /au        :         69.552519


Wiberg/Mayer (AO) data.
largest (>0.10) Wiberg bond orders for each atom

 ---------------------------------------------------------------------------
     #   Z sym  total        # sym  WBO       # sym  WBO       # sym  WBO
 ---------------------------------------------------------------------------
     1   6 C    3.751 --     6 C    1.303     2 C    1.303     7 H    0.967
     2   6 C    3.865 --     3 C    1.457     1 C    1.303     8 H    0.968
     3   6 C    3.845 --     2 C    1.457     4 N    1.296     9 H    0.961
     4   7 N    2.815 --     3 C    1.296     5 C    1.296
     5   6 C    3.845 --     6 C    1.457     4 N    1.296    10 H    0.961
     6   6 C    3.865 --     5 C    1.457     1 C    1.303    11 H    0.968
     7   1 H    0.994 --     1 C    0.967
     8   1 H    0.995 --     2 C    0.968
     9   1 H    0.994 --     3 C    0.961
    10   1 H    0.994 --     5 C    0.961
    11   1 H    0.995 --     6 C    0.968
 ---------------------------------------------------------------------------

Topologies differ in total number of bonds
Writing topology from bond orders to xtbtopo.mol

molecular dipole:
                 x           y           z       tot (Debye)
 q only:       -0.013       0.602      -0.024
   full:       -0.022       1.021      -0.041       2.597
molecular quadrupole (traceless):
                xx          xy          yy          xz          yz          zz
 q only:       -1.543       0.077      -4.656       0.176       0.438       6.199
  q+dip:        1.361       0.146      -5.162       0.051       0.358       3.801
   full:        1.109       0.167      -6.278       0.087       0.459       5.169


           -------------------------------------------------
          | TOTAL ENERGY              -16.355603939857 Eh   |
          | GRADIENT NORM               0.100318704843 Eh/α |
          | HOMO-LUMO GAP               0.075754630429 eV   |
           -------------------------------------------------

------------------------------------------------------------------------
 * finished run on 2026/09/27 at 14:01:45.201     
------------------------------------------------------------------------
 total:
 * wall-time:     0 d,  0 h,  0 min,  0.043 sec
 *  cpu-time:     0 d,  0 h,  0 min,  0.000 sec
 * ratio c/w:     0.000 speedup
 SCF:
 * wall-time:     0 d,  0 h,  0 min,  0.017 sec
 *  cpu-time:     0 d,  0 h,  0 min,  0.000 sec
 * ratio c/w:     0.000 speedup

