16

O     -2.252345    1.328552   -0.737954
C     -2.008789   -0.073080   -0.815774
C     -1.284813   -0.585395    0.429860
C      0.167672   -0.193216    0.435160
S      0.669505    1.264969    1.182957
C      2.305786    0.984976    0.776607
C      2.472692   -0.195552    0.088617
C      1.237494   -0.878067   -0.107185
H     -1.391190    1.761568   -0.593114
H     -2.984056   -0.562669   -0.900529
H     -1.446693   -0.278692   -1.732958
H     -1.348588   -1.680170    0.454643
H     -1.780248   -0.210834    1.333793
H      3.066796    1.697630    1.063916
H      3.435330   -0.553431   -0.255620
H      1.141446   -1.826591   -0.622419
