      -----------------------------------------------------------      
     |                   =====================                   |     
     |                           x T B                           |     
     |                   =====================                   |     
     |                         S. Grimme                         |     
     |          Mulliken Center for Theoretical Chemistry        |     
     |                    University of Bonn                     |     
      -----------------------------------------------------------      

   * xtb version 6.7.1 (edcfbbe) compiled by 'VssAdministrator@runnervm171ch' on 2026-06-10

   xtb is free software: you can redistribute it and/or modify it under
   the terms of the GNU Lesser General Public License as published by
   the Free Software Foundation, either version 3 of the License, or
   (at your option) any later version.
   
   xtb is distributed in the hope that it will be useful,
   but WITHOUT ANY WARRANTY; without even the implied warranty of
   MERCHANTABILITY or FITNESS FOR A PARTICULAR PURPOSE.  See the
   GNU Lesser General Public License for more details.
   
   Cite this work as:
   * C. Bannwarth, E. Caldeweyher, S. Ehlert, A. Hansen, P. Pracht,
     J. Seibert, S. Spicher, S. Grimme, WIREs Comput. Mol. Sci., 2020, 11,
     e01493. DOI: 10.1002/wcms.1493
   
   for GFN2-xTB:
   * C. Bannwarth, S. Ehlert and S. Grimme., J. Chem. Theory Comput., 2019,
     15, 1652-1671. DOI: 10.1021/acs.jctc.8b01176
   for GFN1-xTB:
   * S. Grimme, C. Bannwarth, P. Shushkov, J. Chem. Theory Comput., 2017,
     13, 1989-2009. DOI: 10.1021/acs.jctc.7b00118
   for GFN0-xTB:
   * P. Pracht, E. Caldeweyher, S. Ehlert, S. Grimme, ChemRxiv, 2019, preprint.
     DOI: 10.26434/chemrxiv.8326202.v1
   for GFN-FF:
   * S. Spicher and S. Grimme, Angew. Chem. Int. Ed., 2020, 59, 15665-15673.
     DOI: 10.1002/anie.202004239
   
   for ALPB and GBSA implicit solvation:
   * S. Ehlert, M. Stahn, S. Spicher, S. Grimme, J. Chem. Theory Comput.,
     2021, 17, 4250-4261. DOI: 10.1021/acs.jctc.1c00471
   
   for ddCOSMO and CPCM-X implicit solvation:
   * M. Stahn, S. Ehlert, S. Grimme, J. Phys. Chem. A,
     2023, XX, XXXX-XXXX. DOI: 10.1021/acs.jpca.3c04382
   
   for DFT-D4:
   * E. Caldeweyher, C. Bannwarth and S. Grimme, J. Chem. Phys., 2017,
     147, 034112. DOI: 10.1063/1.4993215
   * E. Caldeweyher, S. Ehlert, A. Hansen, H. Neugebauer, S. Spicher,
     C. Bannwarth and S. Grimme, J. Chem. Phys., 2019, 150, 154122.
     DOI: 10.1063/1.5090222
   * E. Caldeweyher, J.-M. Mewes, S. Ehlert and S. Grimme, Phys. Chem. Chem. Phys.
     2020, 22, 8499-8512. DOI: 10.1039/D0CP00502A
   
   for sTDA-xTB:
   * S. Grimme and C. Bannwarth, J. Chem. Phys., 2016, 145, 054103.
     DOI: 10.1063/1.4959605
   
   in the mass-spec context:
   * V. Asgeirsson, C. Bauer and S. Grimme, Chem. Sci., 2017, 8, 4879.
     DOI: 10.1039/c7sc00601b
   * J. Koopman and S. Grimme, ACS Omega 2019, 4, 12, 15120-15133.
     DOI: 10.1021/acsomega.9b02011
   
   for metadynamics refer to:
   * S. Grimme, J. Chem. Theory Comput., 2019, 155, 2847-2862
     DOI: 10.1021/acs.jctc.9b00143
   
   for SPH calculations refer to:
   * S. Spicher and S. Grimme, J. Chem. Theory Comput., 2021, 17, 1701-1714
     DOI: 10.1021/acs.jctc.0c01306
   
   for ONIOM refer to:
   * C. Plett, A. Katbashev, S. Ehlert, S. Grimme, M. Bursch,
     Phys. Chem. Chem. Phys., 2023, 25, 17860-17868. DOI: 10.1039/D3CP02178E
   
   for DIPRO refer to:
   * J. Kohn, N. Gildemeister, S. Grimme, D. Fazzi, A. Hansen,
     J. Chem. Phys., 2023, just accepted.
   
   for PTB refer to:
   * S. Grimme, M. Mueller, A. Hansen, J. Chem. Phys., 2023, 158, 124111.
     DOI: 10.1063/5.0137838
   
   with help from (in alphabetical order)
   P. Atkinson, C. Bannwarth, F. Bohle, G. Brandenburg, E. Caldeweyher
   M. Checinski, S. Dohm, S. Ehlert, S. Ehrlich, I. Gerasimov, C. Hölzer
   A. Katbashev, J. Kohn, J. Koopman, C. Lavigne, S. Lehtola, F. März, M. Müller,
   F. Musil, H. Neugebauer, J. Pisarek, C. Plett, P. Pracht, F. Pultar,
   J. Seibert, P. Shushkov, S. Spicher, M. Stahn, M. Steiner, T. Strunk,
   J. Stückrath, T. Rose, and J. Unsleber
   
 * started run on 2026/09/27 at 14:01:45.656     
   ID    Z sym.   atoms
    1    6 C      1, 3-8
    2    8 O      2
    3    1 H      9-16

           -------------------------------------------------
          |                Calculation Setup                |
           -------------------------------------------------

          program call               : xtb input.xyz --gfn 2 --alpb acetonitrile --chrg 1 --uhf 1 --scc --json --parallel 1 --norestart
          coordinate file            : input.xyz
          omp threads                :                     1


           -------------------------------------------------
          |                 G F N 2 - x T B                 |
           -------------------------------------------------

        Reference                      10.1021/acs.jctc.8b01176
      * Hamiltonian:
        H0-scaling (s, p, d)           1.850000    2.230000    2.230000
        zeta-weighting                 0.500000
      * Dispersion:
        s8                             2.700000
        a1                             0.520000
        a2                             5.000000
        s9                             5.000000
      * Repulsion:
        kExp                           1.500000    1.000000
        rExp                           1.000000
      * Coulomb:
        alpha                          2.000000
        third order                    shell-resolved
        anisotropic                    true
        a3                             3.000000
        a5                             4.000000
        cn-shift                       1.200000
        cn-exp                         4.000000
        max-rad                        5.000000

      * Solvation model:               ALPB
        Solvent                        acetonitrile
        Parameter file                 internal GFN2-xTB/ALPB
        Dielectric constant                3.7500E+01
        Reference state                gsolv [1 M gas/solution]
        Free energy shift                  5.1987E-03 Eh       3.2622E+00 kcal/mol
        Temperature                        2.9815E+02 K
        Density                            7.8600E-01 kg/L
        Solvent mass                       4.1050E+01 g/mol
        Interaction kernel             P16
        Born radius scaling (c1)           1.7214E+00
        Born radii integrator          GBOBC
        Born offset                        0.0000E+00 a0       0.0000E+00 AA
        H-bond correction              true
        Ion screening                  false
        Surface tension                    1.0000E-05 Eh       1.5569E+01 dyn/cm
        Grid points                               230 per atom

          ...................................................
          :                      SETUP                      :
          :.................................................:
          :  # basis functions                  40          :
          :  # atomic orbitals                  40          :
          :  # shells                           24          :
          :  # electrons                        41          :
          :  max. iterations                   250          :
          :  Hamiltonian                  GFN2-xTB          :
          :  restarted?                      false          :
          :  GBSA solvation                   true          :
          :  PC potential                    false          :
          :  electronic temp.          300.0000000     K    :
          :  accuracy                    1.0000000          :
          :  -> integral cutoff          0.2500000E+02      :
          :  -> integral neglect         0.1000000E-07      :
          :  -> SCF convergence          0.1000000E-05 Eh   :
          :  -> wf. convergence          0.1000000E-03 e    :
          :  Broyden damping             0.4000000          :
          :  net charge                          1          :
          :  unpaired electrons                  1          :
          ...................................................

 iter      E             dE          RMSdq      gap      omega  full diag
   1    -23.0510206 -0.230510E+02  0.496E+00    4.13       0.0  T
   2    -23.0643977 -0.133771E-01  0.301E+00    4.40       1.0  T
   3    -23.0501342  0.142635E-01  0.126E+00    4.26       1.0  T
   4    -23.0660164 -0.158822E-01  0.431E-01    4.42       1.0  T
   5    -23.0680206 -0.200417E-02  0.136E-01    4.41       1.0  T
   6    -23.0681664 -0.145775E-03  0.627E-02    4.43       1.0  T
   7    -23.0681922 -0.258647E-04  0.274E-02    4.42       1.0  T
   8    -23.0681910  0.121962E-05  0.169E-02    4.42       1.5  T
   9    -23.0681945 -0.345622E-05  0.358E-03    4.42       7.0  T
  10    -23.0681946 -0.997061E-07  0.189E-03    4.42      13.2  T
  11    -23.0681946 -0.231886E-07  0.892E-04    4.42      28.0  T
  12    -23.0681946 -0.296447E-08  0.245E-04    4.42     101.9  T

   *** convergence criteria satisfied after 12 iterations ***

         #    Occupation            Energy/Eh            Energy/eV
      -------------------------------------------------------------
         1        2.0000           -0.7980813             -21.7169
       ...           ...                  ...                  ...
        15        2.0000           -0.5377981             -14.6342
        16        2.0000           -0.5126557             -13.9501
        17        2.0000           -0.5109740             -13.9043
        18        2.0000           -0.4963687             -13.5069
        19        2.0000           -0.4804814             -13.0746
        20        2.0000           -0.4771392             -12.9836
        21        1.0000           -0.4570860             -12.4379 (HOMO)
        22                         -0.2945149              -8.0142 (LUMO)
        23                         -0.2915760              -7.9342
        24                         -0.1625610              -4.4235
        25                         -0.0398478              -1.0843
        26                          0.0565741               1.5395
       ...                                ...                  ...
        40                          0.6014864              16.3673
      -------------------------------------------------------------
                  HL-Gap            0.1625711 Eh            4.4238 eV
             Fermi-level           -0.4214496 Eh          -11.4682 eV

 SCC (total)                   0 d,  0 h,  0 min,  0.017 sec
 SCC setup                      ...        0 min,  0.001 sec (  4.154%)
 Dispersion                     ...        0 min,  0.000 sec (  0.772%)
 classical contributions        ...        0 min,  0.000 sec (  0.235%)
 integral evaluation            ...        0 min,  0.001 sec (  8.942%)
 iterations                     ...        0 min,  0.010 sec ( 59.084%)
 molecular gradient             ...        0 min,  0.004 sec ( 23.618%)
 printout                       ...        0 min,  0.001 sec (  3.073%)

         :::::::::::::::::::::::::::::::::::::::::::::::::::::
         ::                     SUMMARY                     ::
         :::::::::::::::::::::::::::::::::::::::::::::::::::::
         :: total energy             -22.704260872486 Eh    ::
         :: total w/o Gsasa/hb       -22.693716202041 Eh    ::
         :: gradient norm              0.080222894664 Eh/a0 ::
         :: HOMO-LUMO gap              4.423785362849 eV    ::
         ::.................................................::
         :: SCC energy               -23.068181973086 Eh    ::
         :: -> isotropic ES            0.093845007037 Eh    ::
         :: -> anisotropic ES         -0.013605167180 Eh    ::
         :: -> anisotropic XC          0.015004743210 Eh    ::
         :: -> dispersion             -0.010176881691 Eh    ::
         :: -> Gsolv                  -0.076932067614 Eh    ::
         ::    -> Gelec               -0.066387397169 Eh    ::
         ::    -> Gsasa               -0.013265936840 Eh    ::
         ::    -> Ghb                 -0.002477388356 Eh    ::
         ::    -> Gshift               0.005198654751 Eh    ::
         :: repulsion energy           0.363921100601 Eh    ::
         :: add. restraining           0.000000000000 Eh    ::
         :: total charge               1.000000000055 e     ::
         :::::::::::::::::::::::::::::::::::::::::::::::::::::

           -------------------------------------------------
          |                Property Printout                |
           -------------------------------------------------

    * Orbital Energies and Occupations

         #    Occupation            Energy/Eh            Energy/eV
      -------------------------------------------------------------
         1        2.0000           -0.7980813             -21.7169
       ...           ...                  ...                  ...
         9        2.0000           -0.6197303             -16.8637
        10        2.0000           -0.5994679             -16.3124
        11        2.0000           -0.5770386             -15.7020
        12        2.0000           -0.5556274             -15.1194
        13        2.0000           -0.5508473             -14.9893
        14        2.0000           -0.5475845             -14.9005
        15        2.0000           -0.5377981             -14.6342
        16        2.0000           -0.5126557             -13.9501
        17        2.0000           -0.5109740             -13.9043
        18        2.0000           -0.4963687             -13.5069
        19        2.0000           -0.4804814             -13.0746
        20        2.0000           -0.4771392             -12.9836
        21        1.0000           -0.4570860             -12.4379 (HOMO)
        22                         -0.2945149              -8.0142 (LUMO)
        23                         -0.2915760              -7.9342
        24                         -0.1625610              -4.4235
        25                         -0.0398478              -1.0843
        26                          0.0565741               1.5395
        27                          0.0673500               1.8327
        28                          0.1024914               2.7889
        29                          0.1081052               2.9417
        30                          0.1293806               3.5206
        31                          0.1343595               3.6561
        32                          0.1558519               4.2409
       ...                                ...                  ...
        40                          0.6014864              16.3673
      -------------------------------------------------------------
                  HL-Gap            0.1625711 Eh            4.4238 eV
             Fermi-level           -0.4214496 Eh          -11.4682 eV

     #   Z          covCN         q      C6AA      α(0)
     1   6 C        3.642    -0.019    21.268     6.631
     2   8 O        1.705    -0.122    16.155     5.427
     3   6 C        2.864     0.189    23.962     8.024
     4   6 C        2.920    -0.013    28.343     8.730
     5   6 C        2.920    -0.009    28.236     8.714
     6   6 C        2.918     0.023    27.495     8.599
     7   6 C        2.921    -0.004    28.116     8.695
     8   6 C        2.917    -0.033    28.830     8.805
     9   1 H        0.925     0.132     1.519     1.927
    10   1 H        0.924     0.140     1.458     1.888
    11   1 H        0.924     0.141     1.456     1.887
    12   1 H        0.926     0.122     1.593     1.974
    13   1 H        0.926     0.109     1.701     2.039
    14   1 H        0.926     0.116     1.642     2.004
    15   1 H        0.926     0.112     1.683     2.029
    16   1 H        0.926     0.114     1.660     2.015

 Mol. C6AA /au·bohr⁶  :       2508.023534
 Mol. C8AA /au·bohr⁸  :      60844.815206
 Mol. α(0) /au        :         79.387977


Wiberg/Mayer (AO) data.
largest (>0.10) Wiberg bond orders for each atom

 ---------------------------------------------------------------------------
     #   Z sym  total        # sym  WBO       # sym  WBO       # sym  WBO
 ---------------------------------------------------------------------------
     1   6 C    3.884 --     2 O    0.996     9 H    0.965    10 H    0.915
                            11 H    0.915
     2   8 O    2.464 --     3 C    1.238     1 C    0.996
     3   6 C    3.909 --     8 C    1.265     2 O    1.238     4 C    1.228
     4   6 C    3.957 --     5 C    1.528     3 C    1.228    12 H    0.955
     5   6 C    3.979 --     4 C    1.528     6 C    1.353    13 H    0.959
     6   6 C    3.907 --     5 C    1.353     7 C    1.338    14 H    0.958
     7   6 C    3.975 --     8 C    1.524     6 C    1.338    15 H    0.959
     8   6 C    3.972 --     7 C    1.524     3 C    1.265    16 H    0.953
     9   1 H    0.982 --     1 C    0.965
    10   1 H    0.979 --     1 C    0.915
    11   1 H    0.979 --     1 C    0.915
    12   1 H    0.985 --     4 C    0.955
    13   1 H    0.987 --     5 C    0.959
    14   1 H    0.986 --     6 C    0.958
    15   1 H    0.988 --     7 C    0.959
    16   1 H    0.987 --     8 C    0.953
 ---------------------------------------------------------------------------

Topologies differ in total number of bonds
Writing topology from bond orders to xtbtopo.mol

molecular dipole:
                 x           y           z       tot (Debye)
 q only:       -0.349      -0.313       0.104
   full:       -0.355      -0.369       0.089       1.322
molecular quadrupole (traceless):
                xx          xy          yy          xz          yz          zz
 q only:       16.092       2.074      -4.065       4.780       2.584     -12.027
  q+dip:       16.324       1.417      -2.870       4.873       3.174     -13.455
   full:       15.197       2.040      -4.328       4.437       2.153     -10.869


           -------------------------------------------------
          | TOTAL ENERGY              -22.704260872486 Eh   |
          | GRADIENT NORM               0.080222894664 Eh/α |
          | HOMO-LUMO GAP               4.423785362849 eV   |
           -------------------------------------------------

------------------------------------------------------------------------
 * finished run on 2026/09/27 at 14:01:45.698     
------------------------------------------------------------------------
 total:
 * wall-time:     0 d,  0 h,  0 min,  0.040 sec
 *  cpu-time:     0 d,  0 h,  0 min,  0.000 sec
 * ratio c/w:     0.000 speedup
 SCF:
 * wall-time:     0 d,  0 h,  0 min,  0.017 sec
 *  cpu-time:     0 d,  0 h,  0 min,  0.000 sec
 * ratio c/w:     0.000 speedup

