      -----------------------------------------------------------      
     |                   =====================                   |     
     |                           x T B                           |     
     |                   =====================                   |     
     |                         S. Grimme                         |     
     |          Mulliken Center for Theoretical Chemistry        |     
     |                    University of Bonn                     |     
      -----------------------------------------------------------      

   * xtb version 6.7.1 (edcfbbe) compiled by 'VssAdministrator@runnervm171ch' on 2026-06-10

   xtb is free software: you can redistribute it and/or modify it under
   the terms of the GNU Lesser General Public License as published by
   the Free Software Foundation, either version 3 of the License, or
   (at your option) any later version.
   
   xtb is distributed in the hope that it will be useful,
   but WITHOUT ANY WARRANTY; without even the implied warranty of
   MERCHANTABILITY or FITNESS FOR A PARTICULAR PURPOSE.  See the
   GNU Lesser General Public License for more details.
   
   Cite this work as:
   * C. Bannwarth, E. Caldeweyher, S. Ehlert, A. Hansen, P. Pracht,
     J. Seibert, S. Spicher, S. Grimme, WIREs Comput. Mol. Sci., 2020, 11,
     e01493. DOI: 10.1002/wcms.1493
   
   for GFN2-xTB:
   * C. Bannwarth, S. Ehlert and S. Grimme., J. Chem. Theory Comput., 2019,
     15, 1652-1671. DOI: 10.1021/acs.jctc.8b01176
   for GFN1-xTB:
   * S. Grimme, C. Bannwarth, P. Shushkov, J. Chem. Theory Comput., 2017,
     13, 1989-2009. DOI: 10.1021/acs.jctc.7b00118
   for GFN0-xTB:
   * P. Pracht, E. Caldeweyher, S. Ehlert, S. Grimme, ChemRxiv, 2019, preprint.
     DOI: 10.26434/chemrxiv.8326202.v1
   for GFN-FF:
   * S. Spicher and S. Grimme, Angew. Chem. Int. Ed., 2020, 59, 15665-15673.
     DOI: 10.1002/anie.202004239
   
   for ALPB and GBSA implicit solvation:
   * S. Ehlert, M. Stahn, S. Spicher, S. Grimme, J. Chem. Theory Comput.,
     2021, 17, 4250-4261. DOI: 10.1021/acs.jctc.1c00471
   
   for ddCOSMO and CPCM-X implicit solvation:
   * M. Stahn, S. Ehlert, S. Grimme, J. Phys. Chem. A,
     2023, XX, XXXX-XXXX. DOI: 10.1021/acs.jpca.3c04382
   
   for DFT-D4:
   * E. Caldeweyher, C. Bannwarth and S. Grimme, J. Chem. Phys., 2017,
     147, 034112. DOI: 10.1063/1.4993215
   * E. Caldeweyher, S. Ehlert, A. Hansen, H. Neugebauer, S. Spicher,
     C. Bannwarth and S. Grimme, J. Chem. Phys., 2019, 150, 154122.
     DOI: 10.1063/1.5090222
   * E. Caldeweyher, J.-M. Mewes, S. Ehlert and S. Grimme, Phys. Chem. Chem. Phys.
     2020, 22, 8499-8512. DOI: 10.1039/D0CP00502A
   
   for sTDA-xTB:
   * S. Grimme and C. Bannwarth, J. Chem. Phys., 2016, 145, 054103.
     DOI: 10.1063/1.4959605
   
   in the mass-spec context:
   * V. Asgeirsson, C. Bauer and S. Grimme, Chem. Sci., 2017, 8, 4879.
     DOI: 10.1039/c7sc00601b
   * J. Koopman and S. Grimme, ACS Omega 2019, 4, 12, 15120-15133.
     DOI: 10.1021/acsomega.9b02011
   
   for metadynamics refer to:
   * S. Grimme, J. Chem. Theory Comput., 2019, 155, 2847-2862
     DOI: 10.1021/acs.jctc.9b00143
   
   for SPH calculations refer to:
   * S. Spicher and S. Grimme, J. Chem. Theory Comput., 2021, 17, 1701-1714
     DOI: 10.1021/acs.jctc.0c01306
   
   for ONIOM refer to:
   * C. Plett, A. Katbashev, S. Ehlert, S. Grimme, M. Bursch,
     Phys. Chem. Chem. Phys., 2023, 25, 17860-17868. DOI: 10.1039/D3CP02178E
   
   for DIPRO refer to:
   * J. Kohn, N. Gildemeister, S. Grimme, D. Fazzi, A. Hansen,
     J. Chem. Phys., 2023, just accepted.
   
   for PTB refer to:
   * S. Grimme, M. Mueller, A. Hansen, J. Chem. Phys., 2023, 158, 124111.
     DOI: 10.1063/5.0137838
   
   with help from (in alphabetical order)
   P. Atkinson, C. Bannwarth, F. Bohle, G. Brandenburg, E. Caldeweyher
   M. Checinski, S. Dohm, S. Ehlert, S. Ehrlich, I. Gerasimov, C. Hölzer
   A. Katbashev, J. Kohn, J. Koopman, C. Lavigne, S. Lehtola, F. März, M. Müller,
   F. Musil, H. Neugebauer, J. Pisarek, C. Plett, P. Pracht, F. Pultar,
   J. Seibert, P. Shushkov, S. Spicher, M. Stahn, M. Steiner, T. Strunk,
   J. Stückrath, T. Rose, and J. Unsleber
   
 * started run on 2026/09/27 at 14:01:45.298     
   ID    Z sym.   atoms
    1    6 C      1-3, 5, 6
    2    7 N      4
    3    1 H      7-11

           -------------------------------------------------
          |                Calculation Setup                |
           -------------------------------------------------

          program call               : xtb input.xyz --gfn 2 --chrg 1 --uhf 1 --scc --json --parallel 1 --norestart
          coordinate file            : input.xyz
          omp threads                :                     1


           -------------------------------------------------
          |                 G F N 2 - x T B                 |
           -------------------------------------------------

        Reference                      10.1021/acs.jctc.8b01176
      * Hamiltonian:
        H0-scaling (s, p, d)           1.850000    2.230000    2.230000
        zeta-weighting                 0.500000
      * Dispersion:
        s8                             2.700000
        a1                             0.520000
        a2                             5.000000
        s9                             5.000000
      * Repulsion:
        kExp                           1.500000    1.000000
        rExp                           1.000000
      * Coulomb:
        alpha                          2.000000
        third order                    shell-resolved
        anisotropic                    true
        a3                             3.000000
        a5                             4.000000
        cn-shift                       1.200000
        cn-exp                         4.000000
        max-rad                        5.000000


          ...................................................
          :                      SETUP                      :
          :.................................................:
          :  # basis functions                  29          :
          :  # atomic orbitals                  29          :
          :  # shells                           17          :
          :  # electrons                        29          :
          :  max. iterations                   250          :
          :  Hamiltonian                  GFN2-xTB          :
          :  restarted?                      false          :
          :  GBSA solvation                  false          :
          :  PC potential                    false          :
          :  electronic temp.          300.0000000     K    :
          :  accuracy                    1.0000000          :
          :  -> integral cutoff          0.2500000E+02      :
          :  -> integral neglect         0.1000000E-07      :
          :  -> SCF convergence          0.1000000E-05 Eh   :
          :  -> wf. convergence          0.1000000E-03 e    :
          :  Broyden damping             0.4000000          :
          :  net charge                          1          :
          :  unpaired electrons                  1          :
          ...................................................

 iter      E             dE          RMSdq      gap      omega  full diag
   1    -15.8342020 -0.158342E+02  0.569E+00    3.16       0.0  T
   2    -15.8708739 -0.366719E-01  0.402E+00    3.98       1.0  T
   3    -15.9100181 -0.391442E-01  0.238E+00    3.48       1.0  T
   4    -15.9189572 -0.893905E-02  0.101E+00    3.80       1.0  T
   5    -15.9341877 -0.152306E-01  0.121E-01    3.70       1.0  T
   6    -15.9342470 -0.593183E-04  0.585E-02    3.71       1.0  T
   7    -15.9342642 -0.171987E-04  0.298E-02    3.71       1.0  T
   8    -15.9342672 -0.297515E-05  0.860E-03    3.71       3.5  T
   9    -15.9342679 -0.659636E-06  0.224E-03    3.71      13.5  T
  10    -15.9342679 -0.279483E-07  0.347E-04    3.71      86.9  T
  11    -15.9342679  0.557332E-10  0.210E-04    3.71     143.7  T

   *** convergence criteria satisfied after 11 iterations ***

         #    Occupation            Energy/Eh            Energy/eV
      -------------------------------------------------------------
         1        2.0000           -0.9076479             -24.6984
       ...           ...                  ...                  ...
         9        2.0000           -0.7195521             -19.5800
        10        2.0000           -0.7079168             -19.2634
        11        2.0000           -0.7014199             -19.0866
        12        2.0000           -0.6718037             -18.2807
        13        2.0000           -0.6578608             -17.9013
        14        2.0000           -0.6506082             -17.7040
        15        1.0000           -0.6246266             -16.9970 (HOMO)
        16                         -0.4882416             -13.2857 (LUMO)
        17                         -0.4679241             -12.7329
        18                         -0.3438893              -9.3577
        19                         -0.0885682              -2.4101
        20                         -0.0793731              -2.1599
       ...                                ...                  ...
        29                          0.3929262              10.6921
      -------------------------------------------------------------
                  HL-Gap            0.1363850 Eh            3.7112 eV
             Fermi-level           -0.5970256 Eh          -16.2459 eV

 SCC (total)                   0 d,  0 h,  0 min,  0.016 sec
 SCC setup                      ...        0 min,  0.000 sec (  2.281%)
 Dispersion                     ...        0 min,  0.000 sec (  0.870%)
 classical contributions        ...        0 min,  0.000 sec (  0.328%)
 integral evaluation            ...        0 min,  0.001 sec (  8.785%)
 iterations                     ...        0 min,  0.011 sec ( 65.415%)
 molecular gradient             ...        0 min,  0.003 sec ( 19.338%)
 printout                       ...        0 min,  0.000 sec (  2.852%)

         :::::::::::::::::::::::::::::::::::::::::::::::::::::
         ::                     SUMMARY                     ::
         :::::::::::::::::::::::::::::::::::::::::::::::::::::
         :: total energy             -15.649665566131 Eh    ::
         :: gradient norm              0.089402074885 Eh/a0 ::
         :: HOMO-LUMO gap              3.711225258695 eV    ::
         ::.................................................::
         :: SCC energy               -15.934263485804 Eh    ::
         :: -> isotropic ES            0.104310892531 Eh    ::
         :: -> anisotropic ES         -0.018603412762 Eh    ::
         :: -> anisotropic XC          0.015017917918 Eh    ::
         :: -> dispersion             -0.006120367953 Eh    ::
         :: repulsion energy           0.284597919674 Eh    ::
         :: add. restraining           0.000000000000 Eh    ::
         :: total charge               1.000000000557 e     ::
         :::::::::::::::::::::::::::::::::::::::::::::::::::::

           -------------------------------------------------
          |                Property Printout                |
           -------------------------------------------------

    * Orbital Energies and Occupations

         #    Occupation            Energy/Eh            Energy/eV
      -------------------------------------------------------------
         1        2.0000           -0.9076479             -24.6984
       ...           ...                  ...                  ...
         3        2.0000           -0.8622197             -23.4622
         4        2.0000           -0.8227939             -22.3894
         5        2.0000           -0.8151597             -22.1816
         6        2.0000           -0.7648338             -20.8122
         7        2.0000           -0.7527887             -20.4844
         8        2.0000           -0.7505883             -20.4245
         9        2.0000           -0.7195521             -19.5800
        10        2.0000           -0.7079168             -19.2634
        11        2.0000           -0.7014199             -19.0866
        12        2.0000           -0.6718037             -18.2807
        13        2.0000           -0.6578608             -17.9013
        14        2.0000           -0.6506082             -17.7040
        15        1.0000           -0.6246266             -16.9970 (HOMO)
        16                         -0.4882416             -13.2857 (LUMO)
        17                         -0.4679241             -12.7329
        18                         -0.3438893              -9.3577
        19                         -0.0885682              -2.4101
        20                         -0.0793731              -2.1599
        21                         -0.0517072              -1.4070
        22                         -0.0379071              -1.0315
        23                         -0.0368882              -1.0038
        24                          0.0730913               1.9889
        25                          0.1630922               4.4380
        26                          0.1879039               5.1131
       ...                                ...                  ...
        29                          0.3929262              10.6921
      -------------------------------------------------------------
                  HL-Gap            0.1363850 Eh            3.7112 eV
             Fermi-level           -0.5970256 Eh          -16.2459 eV

     #   Z          covCN         q      C6AA      α(0)
     1   6 C        2.929     0.019    27.578     8.612
     2   6 C        2.914     0.008    27.840     8.652
     3   6 C        2.913     0.073    26.373     8.421
     4   7 N        1.835     0.039    21.234     6.829
     5   6 C        2.913     0.073    26.373     8.421
     6   6 C        2.914     0.008    27.840     8.652
     7   1 H        0.926     0.169     1.272     1.764
     8   1 H        0.926     0.146     1.422     1.865
     9   1 H        0.925     0.160     1.325     1.800
    10   1 H        0.925     0.160     1.325     1.800
    11   1 H        0.926     0.146     1.422     1.865

 Mol. C6AA /au·bohr⁶  :       1330.452757
 Mol. C8AA /au·bohr⁸  :      33120.633173
 Mol. α(0) /au        :         58.680464


Wiberg/Mayer (AO) data.
largest (>0.10) Wiberg bond orders for each atom

 ---------------------------------------------------------------------------
     #   Z sym  total        # sym  WBO       # sym  WBO       # sym  WBO
 ---------------------------------------------------------------------------
     1   6 C    3.977 --     6 C    1.445     2 C    1.445     7 H    0.877
                             4 N    0.149
     2   6 C    3.961 --     1 C    1.445     3 C    1.358     8 H    0.929
                             5 C    0.122
     3   6 C    3.952 --     4 N    1.494     2 C    1.358     9 H    0.906
                             6 C    0.122
     4   7 N    3.393 --     5 C    1.494     3 C    1.494     1 C    0.149
     5   6 C    3.952 --     4 N    1.494     6 C    1.358    10 H    0.906
                             2 C    0.122
     6   6 C    3.961 --     1 C    1.445     5 C    1.358    11 H    0.929
                             3 C    0.122
     7   1 H    0.968 --     1 C    0.877
     8   1 H    0.978 --     2 C    0.929
     9   1 H    0.973 --     3 C    0.906
    10   1 H    0.973 --     5 C    0.906
    11   1 H    0.978 --     6 C    0.929
 ---------------------------------------------------------------------------

Topologies differ in total number of bonds
Writing topology from bond orders to xtbtopo.mol

molecular dipole:
                 x           y           z       tot (Debye)
 q only:       -0.001       0.051      -0.002
   full:       -0.003       0.126      -0.005       0.321
molecular quadrupole (traceless):
                xx          xy          yy          xz          yz          zz
 q only:        6.469       0.074       2.437      -0.359      -0.462      -8.906
  q+dip:        8.005       0.073       3.832      -0.462      -0.638     -11.838
   full:        6.532       0.076       2.421      -0.362      -0.464      -8.954


           -------------------------------------------------
          | TOTAL ENERGY              -15.649665566131 Eh   |
          | GRADIENT NORM               0.089402074885 Eh/α |
          | HOMO-LUMO GAP               3.711225258695 eV   |
           -------------------------------------------------

------------------------------------------------------------------------
 * finished run on 2026/09/27 at 14:01:45.335     
------------------------------------------------------------------------
 total:
 * wall-time:     0 d,  0 h,  0 min,  0.036 sec
 *  cpu-time:     0 d,  0 h,  0 min,  0.000 sec
 * ratio c/w:     0.000 speedup
 SCF:
 * wall-time:     0 d,  0 h,  0 min,  0.017 sec
 *  cpu-time:     0 d,  0 h,  0 min,  0.000 sec
 * ratio c/w:     0.000 speedup

