15
 energy: -24.254092274062 gnorm: 0.000197849913 xtb: 6.7.1 (edcfbbe)
C           -1.94143675442238        0.55906499850626        0.16888502688967
C           -1.92174727127642       -0.83560776584739        0.09214126822749
C           -0.73760034675253       -1.53502608849802       -0.03164680950544
C            0.43213193521075       -0.79135026010831       -0.07461397601735
O            1.70236529989646       -1.25056117557531       -0.19058809782582
C            2.50425785553041       -0.15680063380858       -0.18731037708189
C            1.80692775251805        0.99679649249174       -0.07421469984067
C            0.42998017694284        0.61678105029077        0.00179383802563
C           -0.77916369738883        1.29835107959189        0.12621043714957
H           -2.89151348381495        1.06340814196820        0.26569456986017
H           -2.85451859279625       -1.37775944295712        0.12952904173587
H           -0.71434581715819       -2.61157846107035       -0.09206307156999
H            3.55772804094658       -0.34210576847848       -0.27293133034290
H            2.20462610945896        1.99051617408180       -0.04797864930847
H           -0.79769020689452        2.37587265941291        0.18709282960413
