16

C      2.691361   -0.029395   -0.234219
O      1.617538   -0.918581    0.066894
C      0.354592   -0.407139    0.037047
C     -0.000077    0.905616   -0.259580
C     -1.344968    1.278422   -0.249008
C     -2.311901    0.329892    0.058542
N     -1.942128   -0.928736    0.340679
C     -0.656614   -1.316071    0.338207
H      2.606659    0.355636   -1.255662
H      2.739995    0.787022    0.493701
H      3.624218   -0.596955   -0.165363
H      0.743807    1.661179   -0.502545
H     -1.631195    2.302813   -0.479760
H     -3.374001    0.550020    0.085200
H     -2.660342   -1.618663    0.565510
H     -0.456943   -2.355061    0.579151
