13

N      3.643462    0.085923   -0.142209
C      2.487067    0.099103   -0.089323
C      1.059684    0.062975   -0.034083
C      0.313313    1.213647    0.218840
C     -1.078297    1.136037    0.264574
C     -1.698032   -0.091102    0.056494
N     -0.952205   -1.183009   -0.185147
C      0.392485   -1.141874   -0.235825
H      0.806722    2.173499    0.381220
H     -1.671813    2.027673    0.461220
H     -2.775316   -0.223825    0.077982
H     -1.425468   -2.077428   -0.335871
H      0.898399   -2.081620   -0.437871
