      -----------------------------------------------------------      
     |                   =====================                   |     
     |                           x T B                           |     
     |                   =====================                   |     
     |                         S. Grimme                         |     
     |          Mulliken Center for Theoretical Chemistry        |     
     |                    University of Bonn                     |     
      -----------------------------------------------------------      

   * xtb version 6.7.1 (edcfbbe) compiled by 'VssAdministrator@runnervm171ch' on 2026-06-10

   xtb is free software: you can redistribute it and/or modify it under
   the terms of the GNU Lesser General Public License as published by
   the Free Software Foundation, either version 3 of the License, or
   (at your option) any later version.
   
   xtb is distributed in the hope that it will be useful,
   but WITHOUT ANY WARRANTY; without even the implied warranty of
   MERCHANTABILITY or FITNESS FOR A PARTICULAR PURPOSE.  See the
   GNU Lesser General Public License for more details.
   
   Cite this work as:
   * C. Bannwarth, E. Caldeweyher, S. Ehlert, A. Hansen, P. Pracht,
     J. Seibert, S. Spicher, S. Grimme, WIREs Comput. Mol. Sci., 2020, 11,
     e01493. DOI: 10.1002/wcms.1493
   
   for GFN2-xTB:
   * C. Bannwarth, S. Ehlert and S. Grimme., J. Chem. Theory Comput., 2019,
     15, 1652-1671. DOI: 10.1021/acs.jctc.8b01176
   for GFN1-xTB:
   * S. Grimme, C. Bannwarth, P. Shushkov, J. Chem. Theory Comput., 2017,
     13, 1989-2009. DOI: 10.1021/acs.jctc.7b00118
   for GFN0-xTB:
   * P. Pracht, E. Caldeweyher, S. Ehlert, S. Grimme, ChemRxiv, 2019, preprint.
     DOI: 10.26434/chemrxiv.8326202.v1
   for GFN-FF:
   * S. Spicher and S. Grimme, Angew. Chem. Int. Ed., 2020, 59, 15665-15673.
     DOI: 10.1002/anie.202004239
   
   for ALPB and GBSA implicit solvation:
   * S. Ehlert, M. Stahn, S. Spicher, S. Grimme, J. Chem. Theory Comput.,
     2021, 17, 4250-4261. DOI: 10.1021/acs.jctc.1c00471
   
   for ddCOSMO and CPCM-X implicit solvation:
   * M. Stahn, S. Ehlert, S. Grimme, J. Phys. Chem. A,
     2023, XX, XXXX-XXXX. DOI: 10.1021/acs.jpca.3c04382
   
   for DFT-D4:
   * E. Caldeweyher, C. Bannwarth and S. Grimme, J. Chem. Phys., 2017,
     147, 034112. DOI: 10.1063/1.4993215
   * E. Caldeweyher, S. Ehlert, A. Hansen, H. Neugebauer, S. Spicher,
     C. Bannwarth and S. Grimme, J. Chem. Phys., 2019, 150, 154122.
     DOI: 10.1063/1.5090222
   * E. Caldeweyher, J.-M. Mewes, S. Ehlert and S. Grimme, Phys. Chem. Chem. Phys.
     2020, 22, 8499-8512. DOI: 10.1039/D0CP00502A
   
   for sTDA-xTB:
   * S. Grimme and C. Bannwarth, J. Chem. Phys., 2016, 145, 054103.
     DOI: 10.1063/1.4959605
   
   in the mass-spec context:
   * V. Asgeirsson, C. Bauer and S. Grimme, Chem. Sci., 2017, 8, 4879.
     DOI: 10.1039/c7sc00601b
   * J. Koopman and S. Grimme, ACS Omega 2019, 4, 12, 15120-15133.
     DOI: 10.1021/acsomega.9b02011
   
   for metadynamics refer to:
   * S. Grimme, J. Chem. Theory Comput., 2019, 155, 2847-2862
     DOI: 10.1021/acs.jctc.9b00143
   
   for SPH calculations refer to:
   * S. Spicher and S. Grimme, J. Chem. Theory Comput., 2021, 17, 1701-1714
     DOI: 10.1021/acs.jctc.0c01306
   
   for ONIOM refer to:
   * C. Plett, A. Katbashev, S. Ehlert, S. Grimme, M. Bursch,
     Phys. Chem. Chem. Phys., 2023, 25, 17860-17868. DOI: 10.1039/D3CP02178E
   
   for DIPRO refer to:
   * J. Kohn, N. Gildemeister, S. Grimme, D. Fazzi, A. Hansen,
     J. Chem. Phys., 2023, just accepted.
   
   for PTB refer to:
   * S. Grimme, M. Mueller, A. Hansen, J. Chem. Phys., 2023, 158, 124111.
     DOI: 10.1063/5.0137838
   
   with help from (in alphabetical order)
   P. Atkinson, C. Bannwarth, F. Bohle, G. Brandenburg, E. Caldeweyher
   M. Checinski, S. Dohm, S. Ehlert, S. Ehrlich, I. Gerasimov, C. Hölzer
   A. Katbashev, J. Kohn, J. Koopman, C. Lavigne, S. Lehtola, F. März, M. Müller,
   F. Musil, H. Neugebauer, J. Pisarek, C. Plett, P. Pracht, F. Pultar,
   J. Seibert, P. Shushkov, S. Spicher, M. Stahn, M. Steiner, T. Strunk,
   J. Stückrath, T. Rose, and J. Unsleber
   
 * started run on 2026/09/27 at 14:01:46.468     
   ID    Z sym.   atoms
    1    6 C      1-4, 6-9
    2    7 N      5
    3    1 H      10-16

           -------------------------------------------------
          |                Calculation Setup                |
           -------------------------------------------------

          program call               : xtb input.xyz --gfn 2 --chrg 0 --uhf 0 --scc --json --parallel 1 --norestart
          coordinate file            : input.xyz
          omp threads                :                     1


           -------------------------------------------------
          |                 G F N 2 - x T B                 |
           -------------------------------------------------

        Reference                      10.1021/acs.jctc.8b01176
      * Hamiltonian:
        H0-scaling (s, p, d)           1.850000    2.230000    2.230000
        zeta-weighting                 0.500000
      * Dispersion:
        s8                             2.700000
        a1                             0.520000
        a2                             5.000000
        s9                             5.000000
      * Repulsion:
        kExp                           1.500000    1.000000
        rExp                           1.000000
      * Coulomb:
        alpha                          2.000000
        third order                    shell-resolved
        anisotropic                    true
        a3                             3.000000
        a5                             4.000000
        cn-shift                       1.200000
        cn-exp                         4.000000
        max-rad                        5.000000


          ...................................................
          :                      SETUP                      :
          :.................................................:
          :  # basis functions                  43          :
          :  # atomic orbitals                  43          :
          :  # shells                           25          :
          :  # electrons                        44          :
          :  max. iterations                   250          :
          :  Hamiltonian                  GFN2-xTB          :
          :  restarted?                      false          :
          :  GBSA solvation                  false          :
          :  PC potential                    false          :
          :  electronic temp.          300.0000000     K    :
          :  accuracy                    1.0000000          :
          :  -> integral cutoff          0.2500000E+02      :
          :  -> integral neglect         0.1000000E-07      :
          :  -> SCF convergence          0.1000000E-05 Eh   :
          :  -> wf. convergence          0.1000000E-03 e    :
          :  Broyden damping             0.4000000          :
          :  net charge                          0          :
          :  unpaired electrons                  0          :
          ...................................................

 iter      E             dE          RMSdq      gap      omega  full diag
   1    -23.9975462 -0.239975E+02  0.418E+00    3.45       0.0  T
   2    -24.0440933 -0.465471E-01  0.284E+00    3.69       1.0  T
   3    -24.0471904 -0.309715E-02  0.153E+00    3.76       1.0  T
   4    -24.0519108 -0.472037E-02  0.581E-01    3.67       1.0  T
   5    -24.0554964 -0.358564E-02  0.118E-01    3.70       1.0  T
   6    -24.0555674 -0.709702E-04  0.584E-02    3.70       1.0  T
   7    -24.0555930 -0.255704E-04  0.219E-02    3.70       1.1  T
   8    -24.0555930 -0.126354E-07  0.826E-03    3.70       3.0  T
   9    -24.0555935 -0.565568E-06  0.236E-03    3.70      10.6  T
  10    -24.0555936 -0.286223E-07  0.108E-03    3.70      23.1  T
  11    -24.0555936 -0.617763E-08  0.483E-04    3.70      51.8  T
  12    -24.0555936 -0.163638E-08  0.147E-04    3.70     170.2  T

   *** convergence criteria satisfied after 12 iterations ***

         #    Occupation            Energy/Eh            Energy/eV
      -------------------------------------------------------------
         1        2.0000           -0.6687229             -18.1969
       ...           ...                  ...                  ...
        16        2.0000           -0.4523670             -12.3095
        17        2.0000           -0.4497525             -12.2384
        18        2.0000           -0.4239646             -11.5367
        19        2.0000           -0.4138471             -11.2614
        20        2.0000           -0.4114313             -11.1956
        21        2.0000           -0.3770075             -10.2589
        22        2.0000           -0.3622006              -9.8560 (HOMO)
        23                         -0.2262049              -6.1553 (LUMO)
        24                         -0.1925336              -5.2391
        25                         -0.1520008              -4.1362
        26                         -0.0649459              -1.7673
        27                          0.0283849               0.7724
       ...                                ...                  ...
        43                          0.7328984              19.9432
      -------------------------------------------------------------
                  HL-Gap            0.1359957 Eh            3.7006 eV
             Fermi-level           -0.2942027 Eh           -8.0057 eV

 SCC (total)                   0 d,  0 h,  0 min,  0.024 sec
 SCC setup                      ...        0 min,  0.000 sec (  1.822%)
 Dispersion                     ...        0 min,  0.000 sec (  0.799%)
 classical contributions        ...        0 min,  0.000 sec (  0.422%)
 integral evaluation            ...        0 min,  0.002 sec (  7.476%)
 iterations                     ...        0 min,  0.015 sec ( 63.220%)
 molecular gradient             ...        0 min,  0.006 sec ( 23.982%)
 printout                       ...        0 min,  0.001 sec (  2.149%)

         :::::::::::::::::::::::::::::::::::::::::::::::::::::
         ::                     SUMMARY                     ::
         :::::::::::::::::::::::::::::::::::::::::::::::::::::
         :: total energy             -23.617239982182 Eh    ::
         :: gradient norm              0.002654391064 Eh/a0 ::
         :: HOMO-LUMO gap              3.700630462002 eV    ::
         ::.................................................::
         :: SCC energy               -24.055569004685 Eh    ::
         :: -> isotropic ES            0.004752911529 Eh    ::
         :: -> anisotropic ES          0.005210843001 Eh    ::
         :: -> anisotropic XC          0.013787534905 Eh    ::
         :: -> dispersion             -0.013874562636 Eh    ::
         :: repulsion energy           0.438329022502 Eh    ::
         :: add. restraining           0.000000000000 Eh    ::
         :: total charge               0.000000000000 e     ::
         :::::::::::::::::::::::::::::::::::::::::::::::::::::

           -------------------------------------------------
          |                Property Printout                |
           -------------------------------------------------

    * Orbital Energies and Occupations

         #    Occupation            Energy/Eh            Energy/eV
      -------------------------------------------------------------
         1        2.0000           -0.6687229             -18.1969
       ...           ...                  ...                  ...
        10        2.0000           -0.5143581             -13.9964
        11        2.0000           -0.5082296             -13.8296
        12        2.0000           -0.4978746             -13.5479
        13        2.0000           -0.4796211             -13.0512
        14        2.0000           -0.4751641             -12.9299
        15        2.0000           -0.4601219             -12.5206
        16        2.0000           -0.4523670             -12.3095
        17        2.0000           -0.4497525             -12.2384
        18        2.0000           -0.4239646             -11.5367
        19        2.0000           -0.4138471             -11.2614
        20        2.0000           -0.4114313             -11.1956
        21        2.0000           -0.3770075             -10.2589
        22        2.0000           -0.3622006              -9.8560 (HOMO)
        23                         -0.2262049              -6.1553 (LUMO)
        24                         -0.1925336              -5.2391
        25                         -0.1520008              -4.1362
        26                         -0.0649459              -1.7673
        27                          0.0283849               0.7724
        28                          0.1213365               3.3017
        29                          0.1387565               3.7758
        30                          0.1490877               4.0569
        31                          0.1564494               4.2572
        32                          0.1865198               5.0755
        33                          0.2106464               5.7320
       ...                                ...                  ...
        43                          0.7328984              19.9432
      -------------------------------------------------------------
                  HL-Gap            0.1359957 Eh            3.7006 eV
             Fermi-level           -0.2942027 Eh           -8.0057 eV

     #   Z          covCN         q      C6AA      α(0)
     1   6 C        2.919    -0.042    29.034     8.836
     2   6 C        2.924    -0.037    28.925     8.820
     3   6 C        2.908    -0.054    29.331     8.880
     4   6 C        3.092     0.044    26.910     8.502
     5   7 N        2.781    -0.101    23.209     7.155
     6   6 C        3.033     0.002    27.950     8.672
     7   6 C        3.010    -0.073    29.804     8.955
     8   6 C        3.117    -0.010    28.103     8.683
     9   6 C        2.911    -0.037    28.917     8.818
    10   1 H        0.926     0.024     2.668     2.554
    11   1 H        0.926     0.025     2.655     2.548
    12   1 H        0.926     0.020     2.732     2.585
    13   1 H        0.860     0.154     1.374     1.836
    14   1 H        0.926     0.028     2.612     2.527
    15   1 H        0.926     0.029     2.607     2.525
    16   1 H        0.926     0.027     2.629     2.536

 Mol. C6AA /au·bohr⁶  :       3424.568948
 Mol. C8AA /au·bohr⁸  :      84488.677875
 Mol. α(0) /au        :         94.432999


Wiberg/Mayer (AO) data.
largest (>0.10) Wiberg bond orders for each atom

 ---------------------------------------------------------------------------
     #   Z sym  total        # sym  WBO       # sym  WBO       # sym  WBO
 ---------------------------------------------------------------------------
     1   6 C    3.992 --     9 C    1.506     2 C    1.371    10 H    0.972
     2   6 C    3.992 --     3 C    1.493     1 C    1.371    11 H    0.972
     3   6 C    3.989 --     2 C    1.493     4 C    1.339    12 H    0.969
                             9 C    0.113
     4   6 C    3.958 --     3 C    1.339     8 C    1.246     5 N    1.176
     5   7 N    3.546 --     6 C    1.199     4 C    1.176    13 H    0.948
     6   6 C    3.953 --     7 C    1.613     5 N    1.199    14 H    0.971
     7   6 C    3.979 --     6 C    1.613     8 C    1.228    15 H    0.974
     8   6 C    3.985 --     9 C    1.329     4 C    1.246     7 C    1.228
     9   6 C    3.992 --     1 C    1.506     8 C    1.329    16 H    0.970
                             3 C    0.113
    10   1 H    0.999 --     1 C    0.972
    11   1 H    0.999 --     2 C    0.972
    12   1 H    0.999 --     3 C    0.969
    13   1 H    0.976 --     5 N    0.948
    14   1 H    0.998 --     6 C    0.971
    15   1 H    0.999 --     7 C    0.974
    16   1 H    0.999 --     9 C    0.970
 ---------------------------------------------------------------------------

Topologies differ in total number of bonds
Writing topology from bond orders to xtbtopo.mol

molecular dipole:
                 x           y           z       tot (Debye)
 q only:        0.445      -0.430      -0.077
   full:        0.569      -0.659      -0.111       2.231
molecular quadrupole (traceless):
                xx          xy          yy          xz          yz          zz
 q only:        1.063      -2.597       1.309      -0.508       0.611      -2.372
  q+dip:        3.301      -3.995       4.361      -1.075       1.760      -7.662
   full:        1.945      -3.850       2.862      -0.836       1.188      -4.807


           -------------------------------------------------
          | TOTAL ENERGY              -23.617239982182 Eh   |
          | GRADIENT NORM               0.002654391064 Eh/α |
          | HOMO-LUMO GAP               3.700630462002 eV   |
           -------------------------------------------------

------------------------------------------------------------------------
 * finished run on 2026/09/27 at 14:01:46.524     
------------------------------------------------------------------------
 total:
 * wall-time:     0 d,  0 h,  0 min,  0.055 sec
 *  cpu-time:     0 d,  0 h,  0 min,  0.000 sec
 * ratio c/w:     0.000 speedup
 SCF:
 * wall-time:     0 d,  0 h,  0 min,  0.025 sec
 *  cpu-time:     0 d,  0 h,  0 min,  0.000 sec
 * ratio c/w:     0.000 speedup

