      -----------------------------------------------------------      
     |                   =====================                   |     
     |                           x T B                           |     
     |                   =====================                   |     
     |                         S. Grimme                         |     
     |          Mulliken Center for Theoretical Chemistry        |     
     |                    University of Bonn                     |     
      -----------------------------------------------------------      

   * xtb version 6.7.1 (edcfbbe) compiled by 'VssAdministrator@runnervm171ch' on 2026-06-10

   xtb is free software: you can redistribute it and/or modify it under
   the terms of the GNU Lesser General Public License as published by
   the Free Software Foundation, either version 3 of the License, or
   (at your option) any later version.
   
   xtb is distributed in the hope that it will be useful,
   but WITHOUT ANY WARRANTY; without even the implied warranty of
   MERCHANTABILITY or FITNESS FOR A PARTICULAR PURPOSE.  See the
   GNU Lesser General Public License for more details.
   
   Cite this work as:
   * C. Bannwarth, E. Caldeweyher, S. Ehlert, A. Hansen, P. Pracht,
     J. Seibert, S. Spicher, S. Grimme, WIREs Comput. Mol. Sci., 2020, 11,
     e01493. DOI: 10.1002/wcms.1493
   
   for GFN2-xTB:
   * C. Bannwarth, S. Ehlert and S. Grimme., J. Chem. Theory Comput., 2019,
     15, 1652-1671. DOI: 10.1021/acs.jctc.8b01176
   for GFN1-xTB:
   * S. Grimme, C. Bannwarth, P. Shushkov, J. Chem. Theory Comput., 2017,
     13, 1989-2009. DOI: 10.1021/acs.jctc.7b00118
   for GFN0-xTB:
   * P. Pracht, E. Caldeweyher, S. Ehlert, S. Grimme, ChemRxiv, 2019, preprint.
     DOI: 10.26434/chemrxiv.8326202.v1
   for GFN-FF:
   * S. Spicher and S. Grimme, Angew. Chem. Int. Ed., 2020, 59, 15665-15673.
     DOI: 10.1002/anie.202004239
   
   for ALPB and GBSA implicit solvation:
   * S. Ehlert, M. Stahn, S. Spicher, S. Grimme, J. Chem. Theory Comput.,
     2021, 17, 4250-4261. DOI: 10.1021/acs.jctc.1c00471
   
   for ddCOSMO and CPCM-X implicit solvation:
   * M. Stahn, S. Ehlert, S. Grimme, J. Phys. Chem. A,
     2023, XX, XXXX-XXXX. DOI: 10.1021/acs.jpca.3c04382
   
   for DFT-D4:
   * E. Caldeweyher, C. Bannwarth and S. Grimme, J. Chem. Phys., 2017,
     147, 034112. DOI: 10.1063/1.4993215
   * E. Caldeweyher, S. Ehlert, A. Hansen, H. Neugebauer, S. Spicher,
     C. Bannwarth and S. Grimme, J. Chem. Phys., 2019, 150, 154122.
     DOI: 10.1063/1.5090222
   * E. Caldeweyher, J.-M. Mewes, S. Ehlert and S. Grimme, Phys. Chem. Chem. Phys.
     2020, 22, 8499-8512. DOI: 10.1039/D0CP00502A
   
   for sTDA-xTB:
   * S. Grimme and C. Bannwarth, J. Chem. Phys., 2016, 145, 054103.
     DOI: 10.1063/1.4959605
   
   in the mass-spec context:
   * V. Asgeirsson, C. Bauer and S. Grimme, Chem. Sci., 2017, 8, 4879.
     DOI: 10.1039/c7sc00601b
   * J. Koopman and S. Grimme, ACS Omega 2019, 4, 12, 15120-15133.
     DOI: 10.1021/acsomega.9b02011
   
   for metadynamics refer to:
   * S. Grimme, J. Chem. Theory Comput., 2019, 155, 2847-2862
     DOI: 10.1021/acs.jctc.9b00143
   
   for SPH calculations refer to:
   * S. Spicher and S. Grimme, J. Chem. Theory Comput., 2021, 17, 1701-1714
     DOI: 10.1021/acs.jctc.0c01306
   
   for ONIOM refer to:
   * C. Plett, A. Katbashev, S. Ehlert, S. Grimme, M. Bursch,
     Phys. Chem. Chem. Phys., 2023, 25, 17860-17868. DOI: 10.1039/D3CP02178E
   
   for DIPRO refer to:
   * J. Kohn, N. Gildemeister, S. Grimme, D. Fazzi, A. Hansen,
     J. Chem. Phys., 2023, just accepted.
   
   for PTB refer to:
   * S. Grimme, M. Mueller, A. Hansen, J. Chem. Phys., 2023, 158, 124111.
     DOI: 10.1063/5.0137838
   
   with help from (in alphabetical order)
   P. Atkinson, C. Bannwarth, F. Bohle, G. Brandenburg, E. Caldeweyher
   M. Checinski, S. Dohm, S. Ehlert, S. Ehrlich, I. Gerasimov, C. Hölzer
   A. Katbashev, J. Kohn, J. Koopman, C. Lavigne, S. Lehtola, F. März, M. Müller,
   F. Musil, H. Neugebauer, J. Pisarek, C. Plett, P. Pracht, F. Pultar,
   J. Seibert, P. Shushkov, S. Spicher, M. Stahn, M. Steiner, T. Strunk,
   J. Stückrath, T. Rose, and J. Unsleber
   
 * started run on 2026/09/27 at 14:01:44.969     
   ID    Z sym.   atoms
    1    6 C      1-3, 5, 6
    2    7 N      4
    3    1 H      7-11

           -------------------------------------------------
          |                Calculation Setup                |
           -------------------------------------------------

          program call               : xtb input.xyz --gfn 2 --alpb acetonitrile --chrg 0 --uhf 0 --opt tight --json --parallel 1 --norestart
          coordinate file            : input.xyz
          omp threads                :                     1


           -------------------------------------------------
          |                 G F N 2 - x T B                 |
           -------------------------------------------------

        Reference                      10.1021/acs.jctc.8b01176
      * Hamiltonian:
        H0-scaling (s, p, d)           1.850000    2.230000    2.230000
        zeta-weighting                 0.500000
      * Dispersion:
        s8                             2.700000
        a1                             0.520000
        a2                             5.000000
        s9                             5.000000
      * Repulsion:
        kExp                           1.500000    1.000000
        rExp                           1.000000
      * Coulomb:
        alpha                          2.000000
        third order                    shell-resolved
        anisotropic                    true
        a3                             3.000000
        a5                             4.000000
        cn-shift                       1.200000
        cn-exp                         4.000000
        max-rad                        5.000000

      * Solvation model:               ALPB
        Solvent                        acetonitrile
        Parameter file                 internal GFN2-xTB/ALPB
        Dielectric constant                3.7500E+01
        Reference state                gsolv [1 M gas/solution]
        Free energy shift                  5.1987E-03 Eh       3.2622E+00 kcal/mol
        Temperature                        2.9815E+02 K
        Density                            7.8600E-01 kg/L
        Solvent mass                       4.1050E+01 g/mol
        Interaction kernel             P16
        Born radius scaling (c1)           1.7214E+00
        Born radii integrator          GBOBC
        Born offset                        0.0000E+00 a0       0.0000E+00 AA
        H-bond correction              true
        Ion screening                  false
        Surface tension                    1.0000E-05 Eh       1.5569E+01 dyn/cm
        Grid points                               230 per atom

          ...................................................
          :                      SETUP                      :
          :.................................................:
          :  # basis functions                  29          :
          :  # atomic orbitals                  29          :
          :  # shells                           17          :
          :  # electrons                        30          :
          :  max. iterations                   250          :
          :  Hamiltonian                  GFN2-xTB          :
          :  restarted?                      false          :
          :  GBSA solvation                   true          :
          :  PC potential                    false          :
          :  electronic temp.          300.0000000     K    :
          :  accuracy                    1.0000000          :
          :  -> integral cutoff          0.2500000E+02      :
          :  -> integral neglect         0.1000000E-07      :
          :  -> SCF convergence          0.1000000E-05 Eh   :
          :  -> wf. convergence          0.1000000E-03 e    :
          :  Broyden damping             0.4000000          :
          :  net charge                          0          :
          :  unpaired electrons                  0          :
          ...................................................

 iter      E             dE          RMSdq      gap      omega  full diag
   1    -16.4170462 -0.164170E+02  0.509E+00    3.65       0.0  T
   2    -16.4238300 -0.678381E-02  0.310E+00    3.39       1.0  T
   3    -16.4191555  0.467448E-02  0.907E-01    3.25       1.0  T
   4    -16.4253203 -0.616479E-02  0.216E-01    3.14       1.0  T
   5    -16.4255190 -0.198669E-03  0.677E-02    3.15       1.0  T
   6    -16.4255432 -0.242392E-04  0.267E-02    3.15       1.1  T
   7    -16.4255432  0.430700E-08  0.117E-02    3.15       2.6  T
   8    -16.4255439 -0.650603E-06  0.251E-03    3.15      12.0  T
   9    -16.4255439 -0.991953E-08  0.103E-03    3.16      29.2  T
  10    -16.4255439 -0.596484E-08  0.185E-04    3.15     163.3  T
  11    -16.4255439 -0.365787E-10  0.869E-06    3.15    3469.8  T

   *** convergence criteria satisfied after 11 iterations ***

         #    Occupation            Energy/Eh            Energy/eV
      -------------------------------------------------------------
         1        2.0000           -0.6595706             -17.9478
       ...           ...                  ...                  ...
         9        2.0000           -0.5019879             -13.6598
        10        2.0000           -0.4878212             -13.2743
        11        2.0000           -0.4689627             -12.7611
        12        2.0000           -0.4387051             -11.9378
        13        2.0000           -0.4350059             -11.8371
        14        2.0000           -0.4188105             -11.3964
        15        2.0000           -0.3719163             -10.1204 (HOMO)
        16                         -0.2559742              -6.9654 (LUMO)
        17                         -0.2377173              -6.4686
        18                         -0.1178022              -3.2056
        19                          0.1108352               3.0160
        20                          0.1119774               3.0471
       ...                                ...                  ...
        29                          0.5964195              16.2294
      -------------------------------------------------------------
                  HL-Gap            0.1159421 Eh            3.1549 eV
             Fermi-level           -0.3139452 Eh           -8.5429 eV

 SCC (total)                   0 d,  0 h,  0 min,  0.015 sec
 SCC setup                      ...        0 min,  0.001 sec (  4.542%)
 Dispersion                     ...        0 min,  0.000 sec (  1.991%)
 classical contributions        ...        0 min,  0.000 sec (  0.278%)
 integral evaluation            ...        0 min,  0.001 sec (  6.809%)
 iterations                     ...        0 min,  0.010 sec ( 70.435%)
 molecular gradient             ...        0 min,  0.002 sec ( 13.951%)
 printout                       ...        0 min,  0.000 sec (  1.855%)

         :::::::::::::::::::::::::::::::::::::::::::::::::::::
         ::                     SUMMARY                     ::
         :::::::::::::::::::::::::::::::::::::::::::::::::::::
         :: total energy             -16.155741213249 Eh    ::
         :: total w/o Gsasa/hb       -16.148931939850 Eh    ::
         :: gradient norm              0.044390278501 Eh/a0 ::
         :: HOMO-LUMO gap              3.154945366663 eV    ::
         ::.................................................::
         :: SCC energy               -16.425539336696 Eh    ::
         :: -> isotropic ES            0.008441171065 Eh    ::
         :: -> anisotropic ES          0.002461752816 Eh    ::
         :: -> anisotropic XC          0.017112974584 Eh    ::
         :: -> dispersion             -0.007198303692 Eh    ::
         :: -> Gsolv                  -0.007547278821 Eh    ::
         ::    -> Gelec               -0.000738005422 Eh    ::
         ::    -> Gsasa               -0.011799025021 Eh    ::
         ::    -> Ghb                 -0.000208903130 Eh    ::
         ::    -> Gshift               0.005198654751 Eh    ::
         :: repulsion energy           0.269798123447 Eh    ::
         :: add. restraining           0.000000000000 Eh    ::
         :: total charge              -0.000000000000 e     ::
         :::::::::::::::::::::::::::::::::::::::::::::::::::::

      ----------------------------------------------------------- 
     |                   =====================                   |
     |                        A N C O P T                        |
     |                   =====================                   |
     |               Approximate Normal Coordinate               |
     |                Rational Function Optimizer                |
      ----------------------------------------------------------- 
      ----------------------------------------------------------- 
     |                   =====================                   |
     |                        A N C O P T                        |
     |                   =====================                   |
     |               Approximate Normal Coordinate               |
     |                Rational Function Optimizer                |
      ----------------------------------------------------------- 

          ...................................................
          :                      SETUP                      :
          :.................................................:
          :   optimization level             tight          :
          :   max. optcycles                   200          :
          :   ANC micro-cycles                  20          :
          :   degrees of freedom                27          :
          :.................................................:
          :   RF solver                   davidson          :
          :   write xtbopt.log                true          :
          :   linear?                        false          :
          :   energy convergence         0.1000000E-05 Eh   :
          :   grad. convergence          0.8000000E-03 Eh/α :
          :   maxmium RF displ.          1.0000000          :
          :   Hlow (freq-cutoff)         0.1000000E-01      :
          :   Hmax (freq-cutoff)         5.0000000          :
          :   S6 in model hess.         20.0000000          :
          ...................................................

generating ANC from exact Hessian ...
Using Lindh-Hessian (1995)
 Shifting diagonal of input Hessian by    0.0000000000000000     
 Lowest  eigenvalues of input Hessian
    0.000000    0.000000    0.000000    0.000000    0.000000    0.000000
    0.014642    0.018948    0.023351    0.053213    0.061492    0.095776
    0.095981    0.101714    0.106853    0.125267    0.131147    0.138386
 Highest eigenvalues
    1.339663    1.514419    1.561092    1.903551    1.993565    2.012401


........................................................................
.............................. CYCLE    1 ..............................
........................................................................

 iter      E             dE          RMSdq      gap      omega  full diag
   1    -16.4255439 -0.164255E+02  0.326E-06    3.15       0.0  T
   2    -16.4255439  0.710543E-14  0.193E-06    3.15   15619.4  T
   3    -16.4255439 -0.213163E-13  0.898E-07    3.15   33582.8  T
     SCC iter.                  ...        0 min,  0.001 sec
     gradient                   ...        0 min,  0.002 sec
 * total energy  :   -16.1557412 Eh     change       -0.2451372E-12 Eh
   gradient norm :     0.0443902 Eh/α   predicted     0.0000000E+00 (-100.00%)
   displ. norm   :     0.0854015 α      lambda       -0.2354034E-02
   maximum displ.:     0.0492094 α      in ANC's #9, #14, #13, ...

........................................................................
.............................. CYCLE    2 ..............................
........................................................................

 iter      E             dE          RMSdq      gap      omega  full diag
   1    -16.4394589 -0.164395E+02  0.146E-01    3.20       0.0  T
   2    -16.4394873 -0.284416E-04  0.104E-01    3.22       1.0  T
   3    -16.4394896 -0.226967E-05  0.508E-02    3.21       1.0  T
   4    -16.4394970 -0.740735E-05  0.109E-02    3.22       2.8  T
   5    -16.4394975 -0.503062E-06  0.362E-03    3.22       8.3  T
   6    -16.4394975 -0.120187E-07  0.163E-03    3.22      18.5  T
   7    -16.4394975 -0.106798E-07  0.547E-04    3.22      55.2  T
   8    -16.4394975 -0.427121E-09  0.565E-05    3.22     533.6  T
     SCC iter.                  ...        0 min,  0.003 sec
     gradient                   ...        0 min,  0.004 sec
 * total energy  :   -16.1572158 Eh     change       -0.1474615E-02 Eh
   gradient norm :     0.0150182 Eh/α   predicted    -0.1185602E-02 ( -19.60%)
   displ. norm   :     0.0223431 α      lambda       -0.2360901E-03
   maximum displ.:     0.0127753 α      in ANC's #9, #16, #21, ...

........................................................................
.............................. CYCLE    3 ..............................
........................................................................

 iter      E             dE          RMSdq      gap      omega  full diag
   1    -16.4426370 -0.164426E+02  0.408E-02    3.22       0.0  T
   2    -16.4426413 -0.429968E-05  0.329E-02    3.23       1.0  T
   3    -16.4426429 -0.155864E-05  0.183E-02    3.23       1.6  T
   4    -16.4426429 -0.828330E-07  0.357E-03    3.23       8.5  T
   5    -16.4426430 -0.613798E-07  0.104E-03    3.23      29.0  T
   6    -16.4426430 -0.222459E-08  0.549E-04    3.23      54.9  T
   7    -16.4426430 -0.997183E-09  0.170E-04    3.23     177.2  T
     SCC iter.                  ...        0 min,  0.003 sec
     gradient                   ...        0 min,  0.002 sec
 * total energy  :   -16.1573370 Eh     change       -0.1211999E-03 Eh
   gradient norm :     0.0025193 Eh/α   predicted    -0.1181053E-03 (  -2.55%)
   displ. norm   :     0.0058065 α      lambda       -0.8559738E-05
   maximum displ.:     0.0039544 α      in ANC's #9, #13, #14, ...

........................................................................
.............................. CYCLE    4 ..............................
........................................................................

 iter      E             dE          RMSdq      gap      omega  full diag
   1    -16.4422381 -0.164422E+02  0.146E-02    3.23       0.0  T
   2    -16.4422382 -0.145046E-07  0.834E-03    3.23       3.6  T
   3    -16.4422381  0.691136E-08  0.124E-03    3.23      24.3  T
   4    -16.4422382 -0.129842E-07  0.334E-04    3.23      90.4  T
   5    -16.4422382  0.286100E-10  0.129E-04    3.23     234.3  T
     SCC iter.                  ...        0 min,  0.002 sec
     gradient                   ...        0 min,  0.003 sec
 * total energy  :   -16.1573428 Eh     change       -0.5755822E-05 Eh
   gradient norm :     0.0009438 Eh/α   predicted    -0.4279779E-05 ( -25.64%)
   displ. norm   :     0.0055110 α      lambda       -0.1867704E-05
   maximum displ.:     0.0046422 α      in ANC's #9, #13, #14, ...

........................................................................
.............................. CYCLE    5 ..............................
........................................................................

 iter      E             dE          RMSdq      gap      omega  full diag
   1    -16.4419459 -0.164419E+02  0.130E-02    3.23       0.0  T
   2    -16.4419459 -0.793041E-08  0.751E-03    3.23       4.0  T
   3    -16.4419459  0.159410E-10  0.747E-04    3.23      40.4  T
   4    -16.4419459 -0.325356E-08  0.275E-04    3.23     109.4  T
     SCC iter.                  ...        0 min,  0.002 sec
     gradient                   ...        0 min,  0.002 sec
 * total energy  :   -16.1573436 Eh     change       -0.7693148E-06 Eh
   gradient norm :     0.0004463 Eh/α   predicted    -0.9330249E-06 (  21.28%)
   displ. norm   :     0.0018498 α      lambda       -0.3034216E-06
   maximum displ.:     0.0010693 α      in ANC's #9, #13, #14, ...

   *** GEOMETRY OPTIMIZATION CONVERGED AFTER 5 ITERATIONS ***

------------------------------------------------------------------------
 total energy gain   :        -0.0016023 Eh       -1.0055 kcal/mol
 total RMSD          :         0.0295049 a0        0.0156 Å
 total power (kW/mol):        -0.8413887 (step) -107.6980 (real)
------------------------------------------------------------------------

 ANCopt (total)                0 d,  0 h,  0 min,  0.039 sec
 optimizer setup                ...        0 min,  0.000 sec (  0.706%)
 model hessian                  ...        0 min,  0.001 sec (  2.608%)
 ANC generation                 ...        0 min,  0.000 sec (  0.751%)
 coordinate transformation      ...        0 min,  0.000 sec (  0.134%)
 single point calculation       ...        0 min,  0.033 sec ( 85.184%)
 optimization log               ...        0 min,  0.002 sec (  5.403%)
 hessian update                 ...        0 min,  0.000 sec (  0.298%)
 rational function              ...        0 min,  0.001 sec (  3.053%)

================
 final structure:
================
11
 xtb: 6.7.1 (edcfbbe)
C           -0.02606879511904        1.18716274807248       -0.04713650075400
C           -1.20248964395378        0.45578991594740        0.00914572231323
C           -1.11360298708361       -0.92780566648130        0.06322743237834
N            0.03481479625239       -1.58515514184000        0.06324839204970
C            1.15331305190325       -0.88025355590745        0.00876789615984
C            1.18125578065981        0.50583873599881       -0.04753171352816
H           -0.04958219573705        2.26668571591770       -0.09051278782459
H           -2.16441762852608        0.94483448915890        0.01135802874891
H           -2.00294469058480       -1.54361950099234        0.10914610391981
H            2.06887839911301       -1.45815016416118        0.01104768904538
H            2.12084191307591        1.03467342428697       -0.09075826250846

 Bond Distances (Angstroems)
 ---------------------------
C1-C2=1.3864         C1-C6=1.3863         C1-H7=1.0807         C2-C1=1.3864         C2-C3=1.3875         C2-H8=1.0791         
C3-C2=1.3875         C3-N4=1.3232         C3-H9=1.0827         N4-C3=1.3232         N4-C5=1.3232         C5-N4=1.3232         
C5-C6=1.3875         C5-H10=1.0827        C6-C1=1.3863         C6-C5=1.3875         C6-H11=1.0791        H7-C1=1.0807         
H8-C2=1.0791         H9-C3=1.0827         H10-C5=1.0827        H11-C6=1.0791        
 C  H  Rav=1.0808 sigma=0.0016  Rmin=1.0791  Rmax=1.0827     5
 C  C  Rav=1.3869 sigma=0.0006  Rmin=1.3863  Rmax=1.3875     4
 N  C  Rav=1.3232 sigma=0.0000  Rmin=1.3232  Rmax=1.3232     2

 selected bond angles (degree)
 --------------------
C6-C1-C2=118.67                H7-C1-C2=120.67                H7-C1-C6=120.66                C3-C2-C1=118.25                
H8-C2-C1=121.16                H8-C2-C3=120.59                N4-C3-C2=123.43                H9-C3-C2=121.08                
H9-C3-N4=115.49                C5-N4-C3=117.97                C6-C5-N4=123.43                H10-C5-N4=115.49               
H10-C5-C6=121.08               C5-C6-C1=118.26                H11-C6-C1=121.16               H11-C6-C5=120.58               

 selected dihedral angles (degree)
 ---------------------------------
C3-C2-C1-C6=  0.03            C3-C2-C1-H7=179.99            H8-C2-C1-C6=180.02            H8-C2-C1-H7=359.97            
N4-C3-C2-C1=359.97            N4-C3-C2-H8=179.98            H9-C3-C2-C1=179.95            H9-C3-C2-H8=359.97            
C5-N4-C3-C2=  0.00            C5-N4-C3-H9=180.02            C6-C5-N4-C3=  0.03            H10-C5-N4-C3=180.00           
C5-C6-C1-C2=  0.00            C5-C6-C1-H7=180.04            H11-C6-C1-C2=179.97           H11-C6-C1-H7=  0.00           
C1-C6-C5-N4=359.98            C1-C6-C5-H10=180.01           H11-C6-C5-N4=180.00           H11-C6-C5-H10=  0.03          
           -------------------------------------------------
          |                Final Singlepoint                |
           -------------------------------------------------

          ...................................................
          :                      SETUP                      :
          :.................................................:
          :  # basis functions                  29          :
          :  # atomic orbitals                  29          :
          :  # shells                           17          :
          :  # electrons                        30          :
          :  max. iterations                   250          :
          :  Hamiltonian                  GFN2-xTB          :
          :  restarted?                      false          :
          :  GBSA solvation                   true          :
          :  PC potential                    false          :
          :  electronic temp.          300.0000000     K    :
          :  accuracy                    1.0000000          :
          :  -> integral cutoff          0.2500000E+02      :
          :  -> integral neglect         0.1000000E-07      :
          :  -> SCF convergence          0.1000000E-05 Eh   :
          :  -> wf. convergence          0.1000000E-03 e    :
          :  Broyden damping             0.4000000          :
          :  net charge                          0          :
          :  unpaired electrons                  0          :
          ...................................................

 iter      E             dE          RMSdq      gap      omega  full diag
   1    -16.4419459 -0.164419E+02  0.698E-05    3.23       0.0  T
   2    -16.4419459 -0.149321E-10  0.413E-05    3.23     730.8  T
   3    -16.4419459 -0.832046E-11  0.201E-05    3.23    1499.6  T

   *** convergence criteria satisfied after 3 iterations ***

         #    Occupation            Energy/Eh            Energy/eV
      -------------------------------------------------------------
         1        2.0000           -0.6626823             -18.0325
       ...           ...                  ...                  ...
         9        2.0000           -0.5049129             -13.7394
        10        2.0000           -0.4870423             -13.2531
        11        2.0000           -0.4707548             -12.8099
        12        2.0000           -0.4387266             -11.9384
        13        2.0000           -0.4372484             -11.8981
        14        2.0000           -0.4180469             -11.3756
        15        2.0000           -0.3683322             -10.0228 (HOMO)
        16                         -0.2496583              -6.7935 (LUMO)
        17                         -0.2375453              -6.4639
        18                         -0.1113911              -3.0311
        19                          0.1171960               3.1891
        20                          0.1275270               3.4702
       ...                                ...                  ...
        29                          0.6165055              16.7760
      -------------------------------------------------------------
                  HL-Gap            0.1186739 Eh            3.2293 eV
             Fermi-level           -0.3089952 Eh           -8.4082 eV

 SCC (total)                   0 d,  0 h,  0 min,  0.006 sec
 SCC setup                      ...        0 min,  0.001 sec ( 10.088%)
 Dispersion                     ...        0 min,  0.000 sec (  1.523%)
 classical contributions        ...        0 min,  0.000 sec (  0.531%)
 integral evaluation            ...        0 min,  0.001 sec ( 16.516%)
 iterations                     ...        0 min,  0.002 sec ( 28.604%)
 molecular gradient             ...        0 min,  0.002 sec ( 37.459%)
 printout                       ...        0 min,  0.000 sec (  4.978%)

         :::::::::::::::::::::::::::::::::::::::::::::::::::::
         ::                     SUMMARY                     ::
         :::::::::::::::::::::::::::::::::::::::::::::::::::::
         :: total energy             -16.157343553468 Eh    ::
         :: total w/o Gsasa/hb       -16.150632725511 Eh    ::
         :: gradient norm              0.000453461071 Eh/a0 ::
         :: HOMO-LUMO gap              3.229282349805 eV    ::
         ::.................................................::
         :: SCC energy               -16.441941473142 Eh    ::
         :: -> isotropic ES            0.008048330147 Eh    ::
         :: -> anisotropic ES          0.002240404430 Eh    ::
         :: -> anisotropic XC          0.016666097560 Eh    ::
         :: -> dispersion             -0.007225909676 Eh    ::
         :: -> Gsolv                  -0.007345976502 Eh    ::
         ::    -> Gelec               -0.000635148545 Eh    ::
         ::    -> Gsasa               -0.011713028394 Eh    ::
         ::    -> Ghb                 -0.000196454315 Eh    ::
         ::    -> Gshift               0.005198654751 Eh    ::
         :: repulsion energy           0.284597919674 Eh    ::
         :: add. restraining           0.000000000000 Eh    ::
         :: total charge              -0.000000000000 e     ::
         :::::::::::::::::::::::::::::::::::::::::::::::::::::

           -------------------------------------------------
          |                Property Printout                |
           -------------------------------------------------

    * Orbital Energies and Occupations

         #    Occupation            Energy/Eh            Energy/eV
      -------------------------------------------------------------
         1        2.0000           -0.6626823             -18.0325
       ...           ...                  ...                  ...
         3        2.0000           -0.6275438             -17.0763
         4        2.0000           -0.5901649             -16.0592
         5        2.0000           -0.5839322             -15.8896
         6        2.0000           -0.5395364             -14.6815
         7        2.0000           -0.5155653             -14.0292
         8        2.0000           -0.5061699             -13.7736
         9        2.0000           -0.5049129             -13.7394
        10        2.0000           -0.4870423             -13.2531
        11        2.0000           -0.4707548             -12.8099
        12        2.0000           -0.4387266             -11.9384
        13        2.0000           -0.4372484             -11.8981
        14        2.0000           -0.4180469             -11.3756
        15        2.0000           -0.3683322             -10.0228 (HOMO)
        16                         -0.2496583              -6.7935 (LUMO)
        17                         -0.2375453              -6.4639
        18                         -0.1113911              -3.0311
        19                          0.1171960               3.1891
        20                          0.1275270               3.4702
        21                          0.1585354               4.3140
        22                          0.1794377               4.8827
        23                          0.1806507               4.9158
        24                          0.2998706               8.1599
        25                          0.3882883              10.5659
        26                          0.4187248              11.3941
       ...                                ...                  ...
        29                          0.6165055              16.7760
      -------------------------------------------------------------
                  HL-Gap            0.1186739 Eh            3.2293 eV
             Fermi-level           -0.3089952 Eh           -8.4082 eV

     #   Z          covCN         q      C6AA      α(0)
     1   6 C        2.929    -0.012    28.317     8.727
     2   6 C        2.914    -0.040    28.994     8.830
     3   6 C        2.913     0.058    26.710     8.475
     4   7 N        1.835    -0.230    26.888     7.684
     5   6 C        2.913     0.058    26.710     8.475
     6   6 C        2.914    -0.040    28.994     8.830
     7   1 H        0.926     0.043     2.414     2.430
     8   1 H        0.926     0.042     2.416     2.431
     9   1 H        0.925     0.040     2.449     2.447
    10   1 H        0.925     0.040     2.449     2.447
    11   1 H        0.926     0.042     2.416     2.431

 Mol. C6AA /au·bohr⁶  :       1550.653243
 Mol. C8AA /au·bohr⁸  :      37424.432464
 Mol. α(0) /au        :         63.205605


Wiberg/Mayer (AO) data.
largest (>0.10) Wiberg bond orders for each atom

 ---------------------------------------------------------------------------
     #   Z sym  total        # sym  WBO       # sym  WBO       # sym  WBO
 ---------------------------------------------------------------------------
     1   6 C    3.990 --     6 C    1.442     2 C    1.442     7 H    0.970
                             4 N    0.104
     2   6 C    3.992 --     1 C    1.442     3 C    1.427     8 H    0.970
                             5 C    0.117
     3   6 C    3.982 --     4 N    1.440     2 C    1.427     9 H    0.964
                             6 C    0.117
     4   7 N    3.060 --     5 C    1.440     3 C    1.440     1 C    0.104
     5   6 C    3.982 --     4 N    1.440     6 C    1.427    10 H    0.964
                             2 C    0.117
     6   6 C    3.992 --     1 C    1.442     5 C    1.427    11 H    0.970
                             3 C    0.117
     7   1 H    0.998 --     1 C    0.970
     8   1 H    0.998 --     2 C    0.970
     9   1 H    0.998 --     3 C    0.964
    10   1 H    0.998 --     5 C    0.964
    11   1 H    0.998 --     6 C    0.970
 ---------------------------------------------------------------------------

Topologies differ in total number of bonds
Writing topology from bond orders to xtbtopo.mol

molecular dipole:
                 x           y           z       tot (Debye)
 q only:       -0.011       0.509      -0.020
   full:       -0.020       0.895      -0.036       2.277
molecular quadrupole (traceless):
                xx          xy          yy          xz          yz          zz
 q only:        2.765       0.089      -1.486      -0.097       0.006      -1.280
  q+dip:        5.491       0.155      -1.983      -0.215      -0.066      -3.508
   full:        4.426       0.171      -3.583      -0.129       0.106      -0.843

           -------------------------------------------------
          |                Geometry Summary                 |
           -------------------------------------------------

      molecular mass/u    :       79.1000865
   center of mass at/Å    :        0.0046651      -0.2130977       0.0085122
  moments of inertia/u·Å² :        0.8267892E+02   0.8558710E+02   0.1682660E+03
rotational constants/cm⁻¹ :        0.2038928E+00   0.1969646E+00   0.1001844E+00

 * 11 selected distances

     #   Z          #   Z                                           value/Å
     1   6 C        2   6 C                                       1.3863767
     2   6 C        3   6 C                                       1.3875023
     3   6 C        4   7 N                                       1.3232430
     4   7 N        5   6 C                                       1.3232132
     1   6 C        6   6 C                                       1.3863028
     5   6 C        6   6 C                                       1.3875167 (max)
     1   6 C        7   1 H                                       1.0806500
     2   6 C        8   1 H                                       1.0791085
     3   6 C        9   1 H                                       1.0827115
     5   6 C       10   1 H                                       1.0826956
     6   6 C       11   1 H                                       1.0790537 (min)

 * 3 distinct bonds (by element types)

   Z      Z             #   av. dist./Å        max./Å        min./Å
   1 H    6 C           5     1.0808439     1.0827115     1.0790537
   6 C    6 C           4     1.3869246     1.3875167     1.3863028
   6 C    7 N           2     1.3232281     1.3232430     1.3232132


optimized geometry written to: xtbopt.xyz


           -------------------------------------------------
          | TOTAL ENERGY              -16.157343553468 Eh   |
          | GRADIENT NORM               0.000453461071 Eh/α |
          | HOMO-LUMO GAP               3.229282349805 eV   |
           -------------------------------------------------

------------------------------------------------------------------------
 * finished run on 2026/09/27 at 14:01:45.055     
------------------------------------------------------------------------
 total:
 * wall-time:     0 d,  0 h,  0 min,  0.084 sec
 *  cpu-time:     0 d,  0 h,  0 min,  0.000 sec
 * ratio c/w:     0.000 speedup
 SCF:
 * wall-time:     0 d,  0 h,  0 min,  0.015 sec
 *  cpu-time:     0 d,  0 h,  0 min,  0.000 sec
 * ratio c/w:     0.000 speedup
 ANC optimizer:
 * wall-time:     0 d,  0 h,  0 min,  0.048 sec
 *  cpu-time:     0 d,  0 h,  0 min,  0.000 sec
 * ratio c/w:     0.000 speedup

