%chk=target_indole_neutral.chk
%nprocshared=2
%mem=3GB
#p B3LYP/def2SVP empiricaldispersion=gd3bj opt=(tight,maxcycles=200) freq scrf=(smd,solvent=acetonitrile) int=ultrafine scf=(tight,xqc,maxcycle=512)

target_indole_neutral: proposed solution optimization and harmonic frequencies

0 1
C  -5.2270515854  1.4006986250  0.2929311562
O  -4.8579092822  0.1014892037 -0.1052230716
C  -3.5201987219 -0.2063421250 -0.1582304389
C  -3.2444275755 -1.5280374337 -0.5630983948
C  -1.9569726016 -1.9967972743 -0.6716721772
C  -0.9214515506 -1.1209177087 -0.3666374602
N   0.4314657443 -1.2909820521 -0.3943023513
C   1.0477465002 -0.1300226645  0.0064529987
C   0.0800776556  0.8094894420  0.2817009718
C  -1.1804282827  0.2074773350  0.0471302783
C  -2.4979125866  0.6677680584  0.1493129030
C   2.4938545548 -0.0037806713  0.0719173774
C   3.3306844195 -0.8285800295 -0.6832713050
C   4.7045356860 -0.6927435245 -0.6147900142
C   5.2726334667  0.2666744766  0.2071375344
C   4.4534041732  1.0947312991  0.9584658604
C   3.0800825012  0.9622113054  0.8931150260
H  -4.8320130388  2.1575543426 -0.3928611333
H  -4.8873106674  1.6194426411  1.3106879350
H  -6.3154491737  1.4189963593  0.2634184990
H  -4.0862815604 -2.1637811260 -0.7884048115
H  -1.7624163132 -3.0115955592 -0.9846717432
H   0.9038671799 -2.1535191683 -0.6038383863
H   0.2463579320  1.8227758349  0.5894610822
H  -2.6829584412  1.6830545587  0.4619756231
H   2.9073064806 -1.5663761306 -1.3494067197
H   5.3364285903 -1.3367471239 -1.2094089786
H   6.3463700992  0.3703296926  0.2601387937
H   4.8893442529  1.8457361758  1.6015524556
H   2.4486201448  1.6017922413  1.4904184911

--Link1--
%chk=target_indole_neutral.chk
%nprocshared=2
%mem=3GB
#p M062X/def2TZVP scrf=(smd,solvent=acetonitrile) geom=check guess=read int=ultrafine scf=(tight,xqc,maxcycle=512)

target_indole_neutral: proposed single point on optimized geometry

0 1

