23

O     -2.597319    1.220322    0.939292
C     -2.985774    0.105176    0.141012
C     -1.987344   -1.045900    0.264653
C     -0.686263   -0.758124   -0.423262
C     -0.385315   -1.017179   -1.746684
N      0.898421   -0.606203   -1.985244
C      1.448932   -0.076606   -0.842129
C      2.720710    0.465692   -0.621263
C      3.011359    0.934046    0.663323
C      2.067042    0.860524    1.684102
C      0.800682    0.314338    1.445893
C      0.480822   -0.164228    0.158277
H     -1.735175    1.521420    0.597330
H     -3.967315   -0.220428    0.499533
H     -3.098591    0.441029   -0.895327
H     -2.426785   -1.949397   -0.175431
H     -1.798075   -1.260779    1.323062
H     -0.975345   -1.460682   -2.537906
H      1.379188   -0.678357   -2.871112
H      3.459711    0.522954   -1.413631
H      3.990627    1.360819    0.868043
H      2.313429    1.229268    2.676804
H      0.072376    0.262294    2.250666
