23
 energy: -34.027081360985 gnorm: 0.000428549036 xtb: 6.7.1 (edcfbbe)
O           -2.52508984389947        1.25153770481852        0.88220947377334
C           -2.95060613233535        0.12498899520076        0.15046251581355
C           -1.98308628240538       -1.06571419600312        0.25795968833327
C           -0.68010106042493       -0.77916018901500       -0.41678947730677
C           -0.36537696994059       -1.01648284828447       -1.72430649432658
N            0.90741983471447       -0.59204386208427       -1.99247871215218
C            1.44774980932294       -0.06831231839750       -0.85541977613705
C            2.70118990861427        0.48476788536787       -0.62128696101259
C            2.97133427800187        0.94101306773483        0.65080848269997
C            2.02003143459525        0.85113360229861        1.67214908471368
C            0.77665687278972        0.30442062069523        1.44826172918156
C            0.47144464981494       -0.16381448148886        0.16861327266756
H           -1.61413169468430        1.44518832795415        0.62432388904406
H           -3.92479584825478       -0.14490051831200        0.56682484724250
H           -3.08491255505676        0.38987285146856       -0.90936574081434
H           -2.45796702972764       -1.93214910832218       -0.20514461379217
H           -1.81416354557391       -1.28236337634269        1.31439448920827
H           -0.96505651979035       -1.46870596368906       -2.49127137986739
H            1.37249720265237       -0.66840811486637       -2.88082834397962
H            3.43744913916828        0.55186066981085       -1.40891501299410
H            3.93608853532227        1.37605462311661        0.86821564243272
H            2.27299017354659        1.22003471828001        2.65593376030954
H            0.05043364355043        0.24118091005955        2.24565063696279
