24

C      4.419114    0.510472    1.170661
C      3.710153   -0.012300   -0.063515
O      2.300187    0.043089    0.174177
C      1.535816   -0.401842   -0.864631
O      1.984520   -0.820414   -1.925992
C      0.132890   -0.309650   -0.536946
C     -0.984799   -0.645267   -1.281570
C     -2.120557   -0.353910   -0.483478
C     -3.513811   -0.458065   -0.639209
C     -4.340669   -0.052033    0.418575
C     -3.798858    0.446989    1.606407
C     -2.415253    0.557934    1.779525
C     -1.621171    0.146901    0.711808
O     -0.261492    0.175218    0.683504
H      5.504167    0.487663    1.036462
H      4.158448   -0.090170    2.048386
H      4.110738    1.538951    1.385729
H      4.013522   -1.048078   -0.252837
H      3.964925    0.611268   -0.927786
H     -0.970306   -1.052329   -2.283374
H     -3.945765   -0.844263   -1.557576
H     -5.420949   -0.127295    0.311339
H     -4.463155    0.754936    2.411338
H     -1.977695    0.942195    2.692729
