      -----------------------------------------------------------      
     |                   =====================                   |     
     |                           x T B                           |     
     |                   =====================                   |     
     |                         S. Grimme                         |     
     |          Mulliken Center for Theoretical Chemistry        |     
     |                    University of Bonn                     |     
      -----------------------------------------------------------      

   * xtb version 6.7.1 (edcfbbe) compiled by 'VssAdministrator@runnervm171ch' on 2026-06-10

   xtb is free software: you can redistribute it and/or modify it under
   the terms of the GNU Lesser General Public License as published by
   the Free Software Foundation, either version 3 of the License, or
   (at your option) any later version.
   
   xtb is distributed in the hope that it will be useful,
   but WITHOUT ANY WARRANTY; without even the implied warranty of
   MERCHANTABILITY or FITNESS FOR A PARTICULAR PURPOSE.  See the
   GNU Lesser General Public License for more details.
   
   Cite this work as:
   * C. Bannwarth, E. Caldeweyher, S. Ehlert, A. Hansen, P. Pracht,
     J. Seibert, S. Spicher, S. Grimme, WIREs Comput. Mol. Sci., 2020, 11,
     e01493. DOI: 10.1002/wcms.1493
   
   for GFN2-xTB:
   * C. Bannwarth, S. Ehlert and S. Grimme., J. Chem. Theory Comput., 2019,
     15, 1652-1671. DOI: 10.1021/acs.jctc.8b01176
   for GFN1-xTB:
   * S. Grimme, C. Bannwarth, P. Shushkov, J. Chem. Theory Comput., 2017,
     13, 1989-2009. DOI: 10.1021/acs.jctc.7b00118
   for GFN0-xTB:
   * P. Pracht, E. Caldeweyher, S. Ehlert, S. Grimme, ChemRxiv, 2019, preprint.
     DOI: 10.26434/chemrxiv.8326202.v1
   for GFN-FF:
   * S. Spicher and S. Grimme, Angew. Chem. Int. Ed., 2020, 59, 15665-15673.
     DOI: 10.1002/anie.202004239
   
   for ALPB and GBSA implicit solvation:
   * S. Ehlert, M. Stahn, S. Spicher, S. Grimme, J. Chem. Theory Comput.,
     2021, 17, 4250-4261. DOI: 10.1021/acs.jctc.1c00471
   
   for ddCOSMO and CPCM-X implicit solvation:
   * M. Stahn, S. Ehlert, S. Grimme, J. Phys. Chem. A,
     2023, XX, XXXX-XXXX. DOI: 10.1021/acs.jpca.3c04382
   
   for DFT-D4:
   * E. Caldeweyher, C. Bannwarth and S. Grimme, J. Chem. Phys., 2017,
     147, 034112. DOI: 10.1063/1.4993215
   * E. Caldeweyher, S. Ehlert, A. Hansen, H. Neugebauer, S. Spicher,
     C. Bannwarth and S. Grimme, J. Chem. Phys., 2019, 150, 154122.
     DOI: 10.1063/1.5090222
   * E. Caldeweyher, J.-M. Mewes, S. Ehlert and S. Grimme, Phys. Chem. Chem. Phys.
     2020, 22, 8499-8512. DOI: 10.1039/D0CP00502A
   
   for sTDA-xTB:
   * S. Grimme and C. Bannwarth, J. Chem. Phys., 2016, 145, 054103.
     DOI: 10.1063/1.4959605
   
   in the mass-spec context:
   * V. Asgeirsson, C. Bauer and S. Grimme, Chem. Sci., 2017, 8, 4879.
     DOI: 10.1039/c7sc00601b
   * J. Koopman and S. Grimme, ACS Omega 2019, 4, 12, 15120-15133.
     DOI: 10.1021/acsomega.9b02011
   
   for metadynamics refer to:
   * S. Grimme, J. Chem. Theory Comput., 2019, 155, 2847-2862
     DOI: 10.1021/acs.jctc.9b00143
   
   for SPH calculations refer to:
   * S. Spicher and S. Grimme, J. Chem. Theory Comput., 2021, 17, 1701-1714
     DOI: 10.1021/acs.jctc.0c01306
   
   for ONIOM refer to:
   * C. Plett, A. Katbashev, S. Ehlert, S. Grimme, M. Bursch,
     Phys. Chem. Chem. Phys., 2023, 25, 17860-17868. DOI: 10.1039/D3CP02178E
   
   for DIPRO refer to:
   * J. Kohn, N. Gildemeister, S. Grimme, D. Fazzi, A. Hansen,
     J. Chem. Phys., 2023, just accepted.
   
   for PTB refer to:
   * S. Grimme, M. Mueller, A. Hansen, J. Chem. Phys., 2023, 158, 124111.
     DOI: 10.1063/5.0137838
   
   with help from (in alphabetical order)
   P. Atkinson, C. Bannwarth, F. Bohle, G. Brandenburg, E. Caldeweyher
   M. Checinski, S. Dohm, S. Ehlert, S. Ehrlich, I. Gerasimov, C. Hölzer
   A. Katbashev, J. Kohn, J. Koopman, C. Lavigne, S. Lehtola, F. März, M. Müller,
   F. Musil, H. Neugebauer, J. Pisarek, C. Plett, P. Pracht, F. Pultar,
   J. Seibert, P. Shushkov, S. Spicher, M. Stahn, M. Steiner, T. Strunk,
   J. Stückrath, T. Rose, and J. Unsleber
   
 * started run on 2026/09/27 at 21:41:09.596     
   ID    Z sym.   atoms
    1    6 C      1, 2, 4, 6-13
    2    8 O      3, 5, 14
    3    1 H      15-24

           -------------------------------------------------
          |                Calculation Setup                |
           -------------------------------------------------

          program call               : xtb input.xyz --gfn 2 --alpb acetonitrile --chrg 0 --uhf 0 --opt tight --json --parallel 1 --norestart
          coordinate file            : input.xyz
          omp threads                :                     1


           -------------------------------------------------
          |                 G F N 2 - x T B                 |
           -------------------------------------------------

        Reference                      10.1021/acs.jctc.8b01176
      * Hamiltonian:
        H0-scaling (s, p, d)           1.850000    2.230000    2.230000
        zeta-weighting                 0.500000
      * Dispersion:
        s8                             2.700000
        a1                             0.520000
        a2                             5.000000
        s9                             5.000000
      * Repulsion:
        kExp                           1.500000    1.000000
        rExp                           1.000000
      * Coulomb:
        alpha                          2.000000
        third order                    shell-resolved
        anisotropic                    true
        a3                             3.000000
        a5                             4.000000
        cn-shift                       1.200000
        cn-exp                         4.000000
        max-rad                        5.000000

      * Solvation model:               ALPB
        Solvent                        acetonitrile
        Parameter file                 internal GFN2-xTB/ALPB
        Dielectric constant                3.7500E+01
        Reference state                gsolv [1 M gas/solution]
        Free energy shift                  5.1987E-03 Eh       3.2622E+00 kcal/mol
        Temperature                        2.9815E+02 K
        Density                            7.8600E-01 kg/L
        Solvent mass                       4.1050E+01 g/mol
        Interaction kernel             P16
        Born radius scaling (c1)           1.7214E+00
        Born radii integrator          GBOBC
        Born offset                        0.0000E+00 a0       0.0000E+00 AA
        H-bond correction              true
        Ion screening                  false
        Surface tension                    1.0000E-05 Eh       1.5569E+01 dyn/cm
        Grid points                               230 per atom

          ...................................................
          :                      SETUP                      :
          :.................................................:
          :  # basis functions                  66          :
          :  # atomic orbitals                  66          :
          :  # shells                           38          :
          :  # electrons                        72          :
          :  max. iterations                   250          :
          :  Hamiltonian                  GFN2-xTB          :
          :  restarted?                      false          :
          :  GBSA solvation                   true          :
          :  PC potential                    false          :
          :  electronic temp.          300.0000000     K    :
          :  accuracy                    1.0000000          :
          :  -> integral cutoff          0.2500000E+02      :
          :  -> integral neglect         0.1000000E-07      :
          :  -> SCF convergence          0.1000000E-05 Eh   :
          :  -> wf. convergence          0.1000000E-03 e    :
          :  Broyden damping             0.4000000          :
          :  net charge                          0          :
          :  unpaired electrons                  0          :
          ...................................................

 iter      E             dE          RMSdq      gap      omega  full diag
   1    -41.3628335 -0.413628E+02  0.478E+00    2.87       0.0  T
   2    -41.4045243 -0.416908E-01  0.267E+00    2.76       1.0  T
   3    -41.4011737  0.335058E-02  0.105E+00    2.94       1.0  T
   4    -41.4080612 -0.688753E-02  0.283E-01    2.83       1.0  T
   5    -41.4091489 -0.108770E-02  0.102E-01    2.82       1.0  T
   6    -41.4092474 -0.984541E-04  0.521E-02    2.82       1.0  T
   7    -41.4092543 -0.691759E-05  0.245E-02    2.82       1.0  T
   8    -41.4092597 -0.534857E-05  0.890E-03    2.82       2.3  T
   9    -41.4092601 -0.436388E-06  0.330E-03    2.82       6.2  T
  10    -41.4092602 -0.779123E-07  0.171E-03    2.82      11.9  T
  11    -41.4092602 -0.160899E-07  0.794E-04    2.82      25.7  T
  12    -41.4092602 -0.420211E-08  0.299E-04    2.82      68.2  T

   *** convergence criteria satisfied after 12 iterations ***

         #    Occupation            Energy/Eh            Energy/eV
      -------------------------------------------------------------
         1        2.0000           -0.7490718             -20.3833
       ...           ...                  ...                  ...
        30        2.0000           -0.4502897             -12.2530
        31        2.0000           -0.4498605             -12.2413
        32        2.0000           -0.4398304             -11.9684
        33        2.0000           -0.4365409             -11.8789
        34        2.0000           -0.4319129             -11.7529
        35        2.0000           -0.4134016             -11.2492
        36        2.0000           -0.3989238             -10.8553 (HOMO)
        37                         -0.2953915              -8.0380 (LUMO)
        38                         -0.2360646              -6.4236
        39                         -0.2188935              -5.9564
        40                         -0.1612073              -4.3867
        41                         -0.0974130              -2.6507
       ...                                ...                  ...
        66                          0.7044064              19.1679
      -------------------------------------------------------------
                  HL-Gap            0.1035323 Eh            2.8173 eV
             Fermi-level           -0.3471577 Eh           -9.4466 eV

 SCC (total)                   0 d,  0 h,  0 min,  0.022 sec
 SCC setup                      ...        0 min,  0.001 sec (  2.805%)
 Dispersion                     ...        0 min,  0.000 sec (  0.766%)
 classical contributions        ...        0 min,  0.000 sec (  0.210%)
 integral evaluation            ...        0 min,  0.002 sec ( 10.647%)
 iterations                     ...        0 min,  0.011 sec ( 49.281%)
 molecular gradient             ...        0 min,  0.008 sec ( 34.957%)
 printout                       ...        0 min,  0.000 sec (  1.273%)

         :::::::::::::::::::::::::::::::::::::::::::::::::::::
         ::                     SUMMARY                     ::
         :::::::::::::::::::::::::::::::::::::::::::::::::::::
         :: total energy             -40.878322227160 Eh    ::
         :: total w/o Gsasa/hb       -40.862671229593 Eh    ::
         :: gradient norm              0.072761904812 Eh/a0 ::
         :: HOMO-LUMO gap              2.817255921889 eV    ::
         ::.................................................::
         :: SCC energy               -41.409372268400 Eh    ::
         :: -> isotropic ES            0.060945121942 Eh    ::
         :: -> anisotropic ES          0.001046788122 Eh    ::
         :: -> anisotropic XC          0.011006784024 Eh    ::
         :: -> dispersion             -0.020391588082 Eh    ::
         :: -> Gsolv                  -0.020552017925 Eh    ::
         ::    -> Gelec               -0.004901020358 Eh    ::
         ::    -> Gsasa               -0.020103759715 Eh    ::
         ::    -> Ghb                 -0.000745892604 Eh    ::
         ::    -> Gshift               0.005198654751 Eh    ::
         :: repulsion energy           0.531050041240 Eh    ::
         :: add. restraining           0.000000000000 Eh    ::
         :: total charge              -0.000000000000 e     ::
         :::::::::::::::::::::::::::::::::::::::::::::::::::::

      ----------------------------------------------------------- 
     |                   =====================                   |
     |                        A N C O P T                        |
     |                   =====================                   |
     |               Approximate Normal Coordinate               |
     |                Rational Function Optimizer                |
      ----------------------------------------------------------- 
      ----------------------------------------------------------- 
     |                   =====================                   |
     |                        A N C O P T                        |
     |                   =====================                   |
     |               Approximate Normal Coordinate               |
     |                Rational Function Optimizer                |
      ----------------------------------------------------------- 

          ...................................................
          :                      SETUP                      :
          :.................................................:
          :   optimization level             tight          :
          :   max. optcycles                   200          :
          :   ANC micro-cycles                  20          :
          :   degrees of freedom                66          :
          :.................................................:
          :   RF solver                   davidson          :
          :   write xtbopt.log                true          :
          :   linear?                        false          :
          :   energy convergence         0.1000000E-05 Eh   :
          :   grad. convergence          0.8000000E-03 Eh/α :
          :   maxmium RF displ.          1.0000000          :
          :   Hlow (freq-cutoff)         0.1000000E-01      :
          :   Hmax (freq-cutoff)         5.0000000          :
          :   S6 in model hess.         20.0000000          :
          ...................................................

generating ANC from exact Hessian ...
Using Lindh-Hessian (1995)
 Shifting diagonal of input Hessian by    8.8769669181974591E-003
 Lowest  eigenvalues of input Hessian
    0.000000    0.000000    0.000000    0.000000    0.000000    0.000000
    0.010000    0.010768    0.010938    0.014527    0.017157    0.021167
    0.021904    0.023737    0.029442    0.030451    0.030978    0.041051
 Highest eigenvalues
    1.817560    1.894890    1.994969    2.024157    2.126564    2.341115


........................................................................
.............................. CYCLE    1 ..............................
........................................................................

 iter      E             dE          RMSdq      gap      omega  full diag
   1    -41.4092602 -0.414093E+02  0.134E-04    2.82       0.0  T
   2    -41.4092602 -0.103768E-09  0.803E-05    2.82     254.3  T
   3    -41.4092602 -0.376730E-10  0.545E-05    2.82     374.5  T
     SCC iter.                  ...        0 min,  0.003 sec
     gradient                   ...        0 min,  0.008 sec
 * total energy  :   -40.8783222 Eh     change       -0.4780532E-09 Eh
   gradient norm :     0.0727616 Eh/α   predicted     0.0000000E+00 (-100.00%)
   displ. norm   :     0.1382159 α      lambda       -0.5820897E-02
   maximum displ.:     0.0592908 α      in ANC's #25, #10, #37, ...

........................................................................
.............................. CYCLE    2 ..............................
........................................................................

 iter      E             dE          RMSdq      gap      omega  full diag
   1    -41.4311612 -0.414312E+02  0.165E-01    2.98       0.0  T
   2    -41.4312135 -0.522884E-04  0.101E-01    2.97       1.0  T
   3    -41.4311980  0.155549E-04  0.609E-02    2.97       1.0  T
   4    -41.4312391 -0.411474E-04  0.130E-02    2.97       1.6  T
   5    -41.4312416 -0.250862E-05  0.417E-03    2.97       4.9  T
   6    -41.4312417 -0.449513E-07  0.257E-03    2.97       7.9  T
   7    -41.4312417 -0.127540E-07  0.111E-03    2.97      18.4  T
   8    -41.4312417 -0.129970E-07  0.316E-04    2.97      64.5  T
   9    -41.4312417 -0.244462E-09  0.168E-04    2.97     121.1  T
     SCC iter.                  ...        0 min,  0.008 sec
     gradient                   ...        0 min,  0.008 sec
 * total energy  :   -40.8821209 Eh     change       -0.3798714E-02 Eh
   gradient norm :     0.0297841 Eh/α   predicted    -0.2966169E-02 ( -21.92%)
   displ. norm   :     0.0833839 α      lambda       -0.1078477E-02
   maximum displ.:     0.0614531 α      in ANC's #7, #10, #25, ...

........................................................................
.............................. CYCLE    3 ..............................
........................................................................

 iter      E             dE          RMSdq      gap      omega  full diag
   1    -41.4389912 -0.414390E+02  0.816E-02    3.05       0.0  T
   2    -41.4390268 -0.356203E-04  0.503E-02    3.05       1.0  T
   3    -41.4390365 -0.976070E-05  0.308E-02    3.05       1.0  T
   4    -41.4390411 -0.457562E-05  0.101E-02    3.05       2.0  T
   5    -41.4390421 -0.965365E-06  0.262E-03    3.05       7.8  T
   6    -41.4390422 -0.646749E-07  0.149E-03    3.05      13.7  T
   7    -41.4390422 -0.403526E-08  0.787E-04    3.05      25.9  T
   8    -41.4390422 -0.483718E-08  0.194E-04    3.05     105.2  T
     SCC iter.                  ...        0 min,  0.007 sec
     gradient                   ...        0 min,  0.007 sec
 * total energy  :   -40.8827326 Eh     change       -0.6116658E-03 Eh
   gradient norm :     0.0095321 Eh/α   predicted    -0.5430717E-03 ( -11.21%)
   displ. norm   :     0.0444571 α      lambda       -0.1119075E-03
   maximum displ.:     0.0383507 α      in ANC's #7, #3, #23, ...

........................................................................
.............................. CYCLE    4 ..............................
........................................................................

 iter      E             dE          RMSdq      gap      omega  full diag
   1    -41.4386399 -0.414386E+02  0.271E-02    3.06       0.0  T
   2    -41.4386462 -0.629269E-05  0.161E-02    3.06       1.3  T
   3    -41.4386472 -0.104030E-05  0.978E-03    3.06       2.1  T
   4    -41.4386475 -0.267812E-06  0.461E-03    3.06       4.4  T
   5    -41.4386476 -0.163431E-06  0.809E-04    3.06      25.2  T
   6    -41.4386476 -0.836325E-08  0.389E-04    3.06      52.5  T
     SCC iter.                  ...        0 min,  0.005 sec
     gradient                   ...        0 min,  0.009 sec
 * total energy  :   -40.8828113 Eh     change       -0.7866540E-04 Eh
   gradient norm :     0.0041301 Eh/α   predicted    -0.5606849E-04 ( -28.73%)
   displ. norm   :     0.0487237 α      lambda       -0.5194972E-04
   maximum displ.:     0.0376206 α      in ANC's #7, #3, #10, ...

........................................................................
.............................. CYCLE    5 ..............................
........................................................................

 iter      E             dE          RMSdq      gap      omega  full diag
   1    -41.4376844 -0.414377E+02  0.211E-02    3.06       0.0  T
   2    -41.4376870 -0.266070E-05  0.123E-02    3.06       1.7  T
   3    -41.4376871 -0.124195E-06  0.742E-03    3.06       2.8  T
   4    -41.4376873 -0.174734E-06  0.322E-03    3.06       6.3  T
   5    -41.4376874 -0.126470E-06  0.548E-04    3.06      37.3  T
   6    -41.4376874 -0.303099E-08  0.288E-04    3.06      71.0  T
     SCC iter.                  ...        0 min,  0.006 sec
     gradient                   ...        0 min,  0.007 sec
 * total energy  :   -40.8828417 Eh     change       -0.3047367E-04 Eh
   gradient norm :     0.0017462 Eh/α   predicted    -0.2604337E-04 ( -14.54%)
   displ. norm   :     0.0358565 α      lambda       -0.7608105E-05
   maximum displ.:     0.0281365 α      in ANC's #3, #7, #10, ...

........................................................................
.............................. CYCLE    6 ..............................
........................................................................

 iter      E             dE          RMSdq      gap      omega  full diag
   1    -41.4375109 -0.414375E+02  0.799E-03    3.06       0.0  T
   2    -41.4375110 -0.100346E-06  0.489E-03    3.06       4.2  T
   3    -41.4375109  0.306296E-07  0.198E-03    3.06      10.3  T
   4    -41.4375110 -0.455030E-07  0.607E-04    3.06      33.6  T
   5    -41.4375110 -0.551750E-08  0.227E-04    3.06      89.8  T
     SCC iter.                  ...        0 min,  0.004 sec
     gradient                   ...        0 min,  0.007 sec
 * total energy  :   -40.8828488 Eh     change       -0.7005530E-05 Eh
   gradient norm :     0.0011804 Eh/α   predicted    -0.3806800E-05 ( -45.66%)
   displ. norm   :     0.0242000 α      lambda       -0.3331209E-05
   maximum displ.:     0.0230309 α      in ANC's #3, #7, #10, ...

........................................................................
.............................. CYCLE    7 ..............................
........................................................................

 iter      E             dE          RMSdq      gap      omega  full diag
   1    -41.4377838 -0.414378E+02  0.643E-03    3.06       0.0  T
   2    -41.4377839 -0.181134E-06  0.404E-03    3.06       5.1  T
   3    -41.4377840 -0.131452E-07  0.239E-03    3.06       8.5  T
   4    -41.4377840 -0.364705E-07  0.777E-04    3.06      26.3  T
   5    -41.4377840 -0.623928E-08  0.146E-04    3.06     139.5  T
     SCC iter.                  ...        0 min,  0.005 sec
     gradient                   ...        0 min,  0.007 sec
 * total energy  :   -40.8828524 Eh     change       -0.3599514E-05 Eh
   gradient norm :     0.0005025 Eh/α   predicted    -0.1682927E-05 ( -53.25%)
   displ. norm   :     0.0200450 α      lambda       -0.1653202E-05
   maximum displ.:     0.0194820 α      in ANC's #3, #6, #7, ...

........................................................................
.............................. CYCLE    8 ..............................
........................................................................

 iter      E             dE          RMSdq      gap      omega  full diag
   1    -41.4378682 -0.414379E+02  0.453E-03    3.06       0.0  T
   2    -41.4378682 -0.146158E-07  0.276E-03    3.06       7.4  T
   3    -41.4378682  0.221601E-07  0.117E-03    3.06      17.4  T
   4    -41.4378682 -0.268783E-07  0.212E-04    3.06      96.4  T
   5    -41.4378682 -0.715218E-09  0.799E-05    3.06     255.6  T
     SCC iter.                  ...        0 min,  0.004 sec
     gradient                   ...        0 min,  0.008 sec
 * total energy  :   -40.8828544 Eh     change       -0.2085343E-05 Eh
   gradient norm :     0.0004842 Eh/α   predicted    -0.8438156E-06 ( -59.54%)
   displ. norm   :     0.0168966 α      lambda       -0.1267506E-05
   maximum displ.:     0.0162783 α      in ANC's #3, #5, #6, ...

........................................................................
.............................. CYCLE    9 ..............................
........................................................................

 iter      E             dE          RMSdq      gap      omega  full diag
   1    -41.4378577 -0.414379E+02  0.398E-03    3.06       0.0  T
   2    -41.4378577 -0.613330E-08  0.240E-03    3.06       8.5  T
   3    -41.4378577  0.773865E-08  0.700E-04    3.06      29.2  T
   4    -41.4378577 -0.927675E-08  0.142E-04    3.06     143.9  T
     SCC iter.                  ...        0 min,  0.004 sec
     gradient                   ...        0 min,  0.008 sec
 * total energy  :   -40.8828560 Eh     change       -0.1577521E-05 Eh
   gradient norm :     0.0003362 Eh/α   predicted    -0.6430455E-06 ( -59.24%)
   displ. norm   :     0.0152087 α      lambda       -0.9540440E-06
   maximum displ.:     0.0144011 α      in ANC's #3, #6, #5, ...

........................................................................
.............................. CYCLE   10 ..............................
........................................................................

 iter      E             dE          RMSdq      gap      omega  full diag
   1    -41.4378082 -0.414378E+02  0.337E-03    3.06       0.0  T
   2    -41.4378082 -0.889040E-08  0.202E-03    3.06      10.1  T
   3    -41.4378082  0.123319E-07  0.985E-04    3.06      20.7  T
   4    -41.4378082 -0.157293E-07  0.154E-04    3.06     132.2  T
     SCC iter.                  ...        0 min,  0.004 sec
     gradient                   ...        0 min,  0.007 sec
 * total energy  :   -40.8828572 Eh     change       -0.1220651E-05 Eh
   gradient norm :     0.0001936 Eh/α   predicted    -0.4804956E-06 ( -60.64%)
   displ. norm   :     0.0134041 α      lambda       -0.6406145E-06
   maximum displ.:     0.0126358 α      in ANC's #3, #6, #5, ...

........................................................................
.............................. CYCLE   11 ..............................
........................................................................

 iter      E             dE          RMSdq      gap      omega  full diag
   1    -41.4377661 -0.414378E+02  0.296E-03    3.06       0.0  T
   2    -41.4377661 -0.315473E-08  0.175E-03    3.06      11.7  T
   3    -41.4377661  0.256985E-08  0.424E-04    3.06      48.2  T
   4    -41.4377661 -0.305452E-08  0.124E-04    3.06     165.0  T
     SCC iter.                  ...        0 min,  0.003 sec
     gradient                   ...        0 min,  0.007 sec
 * total energy  :   -40.8828581 Eh     change       -0.8603664E-06 Eh
   gradient norm :     0.0001654 Eh/α   predicted    -0.3219573E-06 ( -62.58%)
   displ. norm   :     0.0121571 α      lambda       -0.4709518E-06
   maximum displ.:     0.0113397 α      in ANC's #3, #1, #2, ...

   *** GEOMETRY OPTIMIZATION CONVERGED AFTER 11 ITERATIONS ***

------------------------------------------------------------------------
 total energy gain   :        -0.0045359 Eh       -2.8463 kcal/mol
 total RMSD          :         0.0671609 a0        0.0355 Å
 total power (kW/mol):        -1.0826292 (step)  -63.5033 (real)
------------------------------------------------------------------------

 ANCopt (total)                0 d,  0 h,  0 min,  0.188 sec
 optimizer setup                ...        0 min,  0.000 sec (  0.131%)
 model hessian                  ...        0 min,  0.003 sec (  1.406%)
 ANC generation                 ...        0 min,  0.001 sec (  0.457%)
 coordinate transformation      ...        0 min,  0.000 sec (  0.053%)
 single point calculation       ...        0 min,  0.179 sec ( 95.670%)
 optimization log               ...        0 min,  0.002 sec (  1.002%)
 hessian update                 ...        0 min,  0.000 sec (  0.119%)
 rational function              ...        0 min,  0.001 sec (  0.714%)

================
 final structure:
================
24
 xtb: 6.7.1 (edcfbbe)
C            4.42429228365747        0.50958041405926        1.16896955441208
C            3.72782787010331       -0.01852260727105       -0.07147131981648
O            2.31335523355362        0.02900043016144        0.15171119587655
C            1.52943715010744       -0.38867194199807       -0.83732901745570
O            1.93811659856311       -0.80384666709116       -1.90362819619881
C            0.10713406814868       -0.29298210986175       -0.49665905169899
C           -0.97814831766602       -0.63468363146394       -1.25670614095005
C           -2.12204025283265       -0.34482659956051       -0.46376000746133
C           -3.50308296474784       -0.45914316294799       -0.64097408680235
C           -4.32300971854619       -0.06434630401665        0.39121970537583
C           -3.80076659826895        0.43949539437162        1.58785975079281
C           -2.44164438689384        0.56421302901842        1.78983113291659
C           -1.61082869235816        0.16582772745534        0.75093868551439
O           -0.26129070633348        0.19270543609431        0.72152915534690
H            5.49915961204810        0.48402770358067        1.01726351545968
H            4.16884692908327       -0.10251592320648        2.02946099961149
H            4.11348227655469        1.53226742904769        1.36392329257172
H            4.01365151858949       -1.05484513195426       -0.28472621882683
H            3.96301338160569        0.58619996180321       -0.95464097867783
H           -0.94636345515218       -1.03764136011694       -2.24806640312433
H           -3.90492481123086       -0.84757315738597       -1.56348546725187
H           -5.39405534701423       -0.14239246945760        0.28219932890833
H           -4.48014437283179        0.73715912894464        2.37180558845876
H           -2.03201729813864        0.95151441179578        2.70846098301948

 Bond Distances (Angstroems)
 ---------------------------
C1-C2=1.5174         C1-H15=1.0858        C1-H16=1.0864        C1-H17=1.0865        C2-C1=1.5174         C2-O3=1.4328         
C2-H18=1.0960        C2-H19=1.0959        O3-C2=1.4328         O3-C4=1.3294         C4-O3=1.3294         C4-O5=1.2151         
C4-C6=1.4657         O5-C4=1.2151         C6-C4=1.4657         C6-C7=1.3683         C6-O14=1.3622        C7-C6=1.3683         
C7-C8=1.4217         C7-H20=1.0706        C8-C7=1.4217         C8-C9=1.3971         C8-C13=1.4134        C9-C8=1.3971         
C9-C10=1.3761        C9-H21=1.0786        C10-C9=1.3761        C10-C11=1.3995       C10-H22=1.0794       C11-C10=1.3995       
C11-C12=1.3797       C11-H23=1.0792       C12-C11=1.3797       C12-C13=1.3886       C12-H24=1.0778       C13-C8=1.4134        
C13-C12=1.3886       C13-O14=1.3501       O14-C6=1.3622        O14-C13=1.3501       H15-C1=1.0858        H16-C1=1.0864        
H17-C1=1.0865        H18-C2=1.0960        H19-C2=1.0959        H20-C7=1.0706        H21-C9=1.0786        H22-C10=1.0794       
H23-C11=1.0792       H24-C12=1.0778       
 C  H  Rav=1.0836 sigma=0.0077  Rmin=1.0706  Rmax=1.0960    10
 C  C  Rav=1.4127 sigma=0.0439  Rmin=1.3683  Rmax=1.5174    10
 O  C  Rav=1.3379 sigma=0.0706  Rmin=1.2151  Rmax=1.4328     5

 selected bond angles (degree)
 --------------------
H15-C1-C2=109.39               H16-C1-C2=110.09               H16-C1-H15=109.28              H17-C1-C2=110.06               
H17-C1-H15=109.29              H17-C1-H16=108.72              O3-C2-C1=108.31                H18-C2-C1=111.62               
H18-C2-O3=108.61               H19-C2-C1=111.61               H19-C2-O3=108.61               H19-C2-H18=108.00              
C4-O3-C2=117.12                O5-C4-O3=124.19                C6-C4-O3=112.26                C6-C4-O5=123.55                
C7-C6-C4=128.63                O14-C6-C4=119.58               O14-C6-C7=111.79               C8-C7-C6=106.11                
H20-C7-C6=125.79               H20-C7-C8=128.10               C9-C8-C7=135.07                C13-C8-C7=105.19               
C13-C8-C9=119.74               C10-C9-C8=118.06               H21-C9-C8=120.41               H21-C9-C10=121.53              
C11-C10-C9=121.49              H22-C10-C9=119.65              H22-C10-C11=118.86             

 selected dihedral angles (degree)
 ---------------------------------
O3-C2-C1-H15=180.17           O3-C2-C1-H16= 60.08           O3-C2-C1-H17=300.26           H18-C2-C1-H15= 60.64          
H18-C2-C1-H16=300.55          H18-C2-C1-H17=180.73          H19-C2-C1-H15=299.68          H19-C2-C1-H16=179.59          
H19-C2-C1-H17= 59.77          C4-O3-C2-C1=179.53            C4-O3-C2-H18=300.93           C4-O3-C2-H19= 58.15           
O5-C4-O3-C2=  0.09            C6-C4-O3-C2=180.06            C7-C6-C4-O3=180.35            C7-C6-C4-O5=  0.32            
O14-C6-C4-O3=  0.41           O14-C6-C4-O5=180.38           C8-C7-C6-C4=180.07            C8-C7-C6-O14=  0.00           
H20-C7-C6-C4=  0.05           H20-C7-C6-O14=179.99          C9-C8-C7-C6=180.09            C9-C8-C7-H20=  0.11           
C13-C8-C7-C6=  0.00           C13-C8-C7-H20=180.04          C10-C9-C8-C7=179.88           C10-C9-C8-C13=359.96          
H21-C9-C8-C7=359.93           H21-C9-C8-C13=180.01          C11-C10-C9-C8=  0.05          C11-C10-C9-H21=180.00         
H22-C10-C9-C8=180.05          H22-C10-C9-H21=  0.00         
           -------------------------------------------------
          |                Final Singlepoint                |
           -------------------------------------------------

          ...................................................
          :                      SETUP                      :
          :.................................................:
          :  # basis functions                  66          :
          :  # atomic orbitals                  66          :
          :  # shells                           38          :
          :  # electrons                        72          :
          :  max. iterations                   250          :
          :  Hamiltonian                  GFN2-xTB          :
          :  restarted?                      false          :
          :  GBSA solvation                   true          :
          :  PC potential                    false          :
          :  electronic temp.          300.0000000     K    :
          :  accuracy                    1.0000000          :
          :  -> integral cutoff          0.2500000E+02      :
          :  -> integral neglect         0.1000000E-07      :
          :  -> SCF convergence          0.1000000E-05 Eh   :
          :  -> wf. convergence          0.1000000E-03 e    :
          :  Broyden damping             0.4000000          :
          :  net charge                          0          :
          :  unpaired electrons                  0          :
          ...................................................

 iter      E             dE          RMSdq      gap      omega  full diag
   1    -41.4377661 -0.414378E+02  0.475E-05    3.06       0.0  T
   2    -41.4377661 -0.295586E-11  0.310E-05    3.06     659.2  T
   3    -41.4377661  0.201794E-11  0.201E-05    3.06    1016.1  T

   *** convergence criteria satisfied after 3 iterations ***

         #    Occupation            Energy/Eh            Energy/eV
      -------------------------------------------------------------
         1        2.0000           -0.7515335             -20.4503
       ...           ...                  ...                  ...
        30        2.0000           -0.4501679             -12.2497
        31        2.0000           -0.4488071             -12.2127
        32        2.0000           -0.4413820             -12.0106
        33        2.0000           -0.4339822             -11.8093
        34        2.0000           -0.4290264             -11.6744
        35        2.0000           -0.4104953             -11.1701
        36        2.0000           -0.3996356             -10.8746 (HOMO)
        37                         -0.2872544              -7.8166 (LUMO)
        38                         -0.2294703              -6.2442
        39                         -0.2177542              -5.9254
        40                         -0.1565081              -4.2588
        41                         -0.0935380              -2.5453
       ...                                ...                  ...
        66                          0.7186494              19.5554
      -------------------------------------------------------------
                  HL-Gap            0.1123812 Eh            3.0580 eV
             Fermi-level           -0.3434450 Eh           -9.3456 eV

 SCC (total)                   0 d,  0 h,  0 min,  0.016 sec
 SCC setup                      ...        0 min,  0.001 sec (  4.338%)
 Dispersion                     ...        0 min,  0.000 sec (  1.124%)
 classical contributions        ...        0 min,  0.000 sec (  0.326%)
 integral evaluation            ...        0 min,  0.003 sec ( 17.753%)
 iterations                     ...        0 min,  0.003 sec ( 21.000%)
 molecular gradient             ...        0 min,  0.008 sec ( 53.349%)
 printout                       ...        0 min,  0.000 sec (  2.028%)

         :::::::::::::::::::::::::::::::::::::::::::::::::::::
         ::                     SUMMARY                     ::
         :::::::::::::::::::::::::::::::::::::::::::::::::::::
         :: total energy             -40.882858095976 Eh    ::
         :: total w/o Gsasa/hb       -40.867272437492 Eh    ::
         :: gradient norm              0.000166672323 Eh/a0 ::
         :: HOMO-LUMO gap              3.058047856021 eV    ::
         ::.................................................::
         :: SCC energy               -41.437879644407 Eh    ::
         :: -> isotropic ES            0.060444437319 Eh    ::
         :: -> anisotropic ES          0.000652334673 Eh    ::
         :: -> anisotropic XC          0.009882146647 Eh    ::
         :: -> dispersion             -0.020448986541 Eh    ::
         :: -> Gsolv                  -0.020430612984 Eh    ::
         ::    -> Gelec               -0.004844954501 Eh    ::
         ::    -> Gsasa               -0.020020298905 Eh    ::
         ::    -> Ghb                 -0.000764014330 Eh    ::
         ::    -> Gshift               0.005198654751 Eh    ::
         :: repulsion energy           0.555021548431 Eh    ::
         :: add. restraining           0.000000000000 Eh    ::
         :: total charge              -0.000000000000 e     ::
         :::::::::::::::::::::::::::::::::::::::::::::::::::::

           -------------------------------------------------
          |                Property Printout                |
           -------------------------------------------------

    * Orbital Energies and Occupations

         #    Occupation            Energy/Eh            Energy/eV
      -------------------------------------------------------------
         1        2.0000           -0.7515335             -20.4503
       ...           ...                  ...                  ...
        24        2.0000           -0.4906447             -13.3511
        25        2.0000           -0.4843836             -13.1807
        26        2.0000           -0.4828253             -13.1383
        27        2.0000           -0.4817397             -13.1088
        28        2.0000           -0.4757366             -12.9455
        29        2.0000           -0.4674889             -12.7210
        30        2.0000           -0.4501679             -12.2497
        31        2.0000           -0.4488071             -12.2127
        32        2.0000           -0.4413820             -12.0106
        33        2.0000           -0.4339822             -11.8093
        34        2.0000           -0.4290264             -11.6744
        35        2.0000           -0.4104953             -11.1701
        36        2.0000           -0.3996356             -10.8746 (HOMO)
        37                         -0.2872544              -7.8166 (LUMO)
        38                         -0.2294703              -6.2442
        39                         -0.2177542              -5.9254
        40                         -0.1565081              -4.2588
        41                         -0.0935380              -2.5453
        42                         -0.0038713              -0.1053
        43                          0.0426616               1.1609
        44                          0.0992259               2.7001
        45                          0.1062409               2.8910
        46                          0.1142559               3.1091
        47                          0.1349388               3.6719
       ...                                ...                  ...
        66                          0.7186494              19.5554
      -------------------------------------------------------------
                  HL-Gap            0.1123812 Eh            3.0580 eV
             Fermi-level           -0.3434450 Eh           -9.3456 eV

     #   Z          covCN         q      C6AA      α(0)
     1   6 C        3.751    -0.125    22.952     6.832
     2   6 C        3.699     0.082    19.373     6.295
     3   8 O        1.705    -0.253    18.188     5.758
     4   6 C        2.719     0.345    21.135     7.526
     5   8 O        0.857    -0.457    22.858     6.410
     6   6 C        3.102     0.086    25.967     8.350
     7   6 C        2.984    -0.054    29.331     8.884
     8   6 C        3.085    -0.008    28.130     8.694
     9   6 C        2.910    -0.034    28.842     8.806
    10   6 C        2.920    -0.037    28.908     8.817
    11   6 C        2.926    -0.030    28.761     8.795
    12   6 C        2.906    -0.051    29.275     8.872
    13   6 C        3.118     0.130    24.991     8.188
    14   8 O        1.719    -0.196    17.263     5.610
    15   1 H        0.925     0.066     2.127     2.281
    16   1 H        0.925     0.067     2.123     2.278
    17   1 H        0.925     0.067     2.123     2.278
    18   1 H        0.924     0.054     2.266     2.354
    19   1 H        0.924     0.054     2.266     2.354
    20   1 H        0.926     0.067     2.117     2.275
    21   1 H        0.926     0.054     2.270     2.356
    22   1 H        0.926     0.054     2.269     2.356
    23   1 H        0.926     0.057     2.229     2.335
    24   1 H        0.926     0.060     2.196     2.317

 Mol. C6AA /au·bohr⁶  :       7047.380329
 Mol. C8AA /au·bohr⁸  :     169541.998770
 Mol. α(0) /au        :        131.021475


Wiberg/Mayer (AO) data.
largest (>0.10) Wiberg bond orders for each atom

 ---------------------------------------------------------------------------
     #   Z sym  total        # sym  WBO       # sym  WBO       # sym  WBO
 ---------------------------------------------------------------------------
     1   6 C    3.987 --     2 C    1.019    16 H    0.984    17 H    0.984
                            15 H    0.981
     2   6 C    3.916 --     1 C    1.019    19 H    0.968    18 H    0.968
                             3 O    0.927
     3   8 O    2.320 --     4 C    1.151     2 C    0.927     5 O    0.173
     4   6 C    3.928 --     5 O    1.666     3 O    1.151     6 C    1.030
     5   8 O    1.974 --     4 C    1.666     3 O    0.173
     6   6 C    3.918 --     7 C    1.558    14 O    1.083     4 C    1.030
     7   6 C    3.984 --     6 C    1.558     8 C    1.234    20 H    0.970
     8   6 C    3.985 --     9 C    1.315    13 C    1.262     7 C    1.234
     9   6 C    3.983 --    10 C    1.515     8 C    1.315    21 H    0.968
                            12 C    0.116
    10   6 C    3.989 --     9 C    1.515    11 C    1.369    22 H    0.969
    11   6 C    3.976 --    12 C    1.491    10 C    1.369    23 H    0.969
    12   6 C    3.986 --    11 C    1.491    13 C    1.345    24 H    0.966
                             9 C    0.116
    13   6 C    3.917 --    12 C    1.345     8 C    1.262    14 O    1.095
    14   8 O    2.409 --    13 C    1.095     6 C    1.083
    15   1 H    0.995 --     1 C    0.981
    16   1 H    0.996 --     1 C    0.984
    17   1 H    0.996 --     1 C    0.984
    18   1 H    0.996 --     2 C    0.968
    19   1 H    0.996 --     2 C    0.968
    20   1 H    0.995 --     7 C    0.970
    21   1 H    0.997 --     9 C    0.968
    22   1 H    0.997 --    10 C    0.969
    23   1 H    0.996 --    11 C    0.969
    24   1 H    0.996 --    12 C    0.966
 ---------------------------------------------------------------------------

Topologies differ in total number of bonds
Writing topology from bond orders to xtbtopo.mol

molecular dipole:
                 x           y           z       tot (Debye)
 q only:       -0.655       0.398       1.038
   full:       -0.574       0.380       0.989       3.064
molecular quadrupole (traceless):
                xx          xy          yy          xz          yz          zz
 q only:       16.920       3.417      -7.632       6.285      -0.867      -9.288
  q+dip:       15.502       3.288      -7.317       6.124      -0.447      -8.185
   full:       14.350       3.172      -5.025       6.148      -2.118      -9.325

           -------------------------------------------------
          |                Geometry Summary                 |
           -------------------------------------------------

      molecular mass/u    :      190.1957172
   center of mass at/Å    :       -0.2056072      -0.0762019       0.0597162
  moments of inertia/u·Å² :        0.2547114E+03   0.1463268E+04   0.1711663E+04
rotational constants/cm⁻¹ :        0.6618327E-01   0.1152054E-01   0.9848686E-02

 * 24 selected distances

     #   Z          #   Z                                           value/Å
     1   6 C        2   6 C                                       1.5174483 (max)
     2   6 C        3   8 O                                       1.4327603
     3   8 O        4   6 C                                       1.3293527
     4   6 C        5   8 O                                       1.2150651
     6   6 C        7   6 C                                       1.3683091
     7   6 C        8   6 C                                       1.4217137
     8   6 C        9   6 C                                       1.3970513
     9   6 C       10   6 C                                       1.3760701
    10   6 C       11   6 C                                       1.3994792
    11   6 C       12   6 C                                       1.3796958
     8   6 C       13   6 C                                       1.4133642
    12   6 C       13   6 C                                       1.3886193
     6   6 C       14   8 O                                       1.3622085
    13   6 C       14   8 O                                       1.3501261
     1   6 C       15   1 H                                       1.0858212
     1   6 C       16   1 H                                       1.0864437
     1   6 C       17   1 H                                       1.0865076
     2   6 C       18   1 H                                       1.0959641
     2   6 C       19   1 H                                       1.0958971
     7   6 C       20   1 H                                       1.0705982 (min)
     9   6 C       21   1 H                                       1.0786020
    10   6 C       22   1 H                                       1.0794052
    11   6 C       23   1 H                                       1.0792262
    12   6 C       24   1 H                                       1.0778115

 * 3 distinct bonds (by element types)

   Z      Z             #   av. dist./Å        max./Å        min./Å
   1 H    6 C          10     1.0836277     1.0959641     1.0705982
   6 C    6 C           9     1.4068612     1.5174483     1.3683091
   6 C    8 O           5     1.3379025     1.4327603     1.2150651


optimized geometry written to: xtbopt.xyz


           -------------------------------------------------
          | TOTAL ENERGY              -40.882858095976 Eh   |
          | GRADIENT NORM               0.000166672323 Eh/α |
          | HOMO-LUMO GAP               3.058047856021 eV   |
           -------------------------------------------------

------------------------------------------------------------------------
 * finished run on 2026/09/27 at 21:41:09.848     
------------------------------------------------------------------------
 total:
 * wall-time:     0 d,  0 h,  0 min,  0.251 sec
 *  cpu-time:     0 d,  0 h,  0 min,  0.078 sec
 * ratio c/w:     0.311 speedup
 SCF:
 * wall-time:     0 d,  0 h,  0 min,  0.023 sec
 *  cpu-time:     0 d,  0 h,  0 min,  0.000 sec
 * ratio c/w:     0.000 speedup
 ANC optimizer:
 * wall-time:     0 d,  0 h,  0 min,  0.207 sec
 *  cpu-time:     0 d,  0 h,  0 min,  0.078 sec
 * ratio c/w:     0.377 speedup

