24
 energy: -40.882858095976 gnorm: 0.000166672323 xtb: 6.7.1 (edcfbbe)
C            4.42429228365747        0.50958041405926        1.16896955441208
C            3.72782787010331       -0.01852260727105       -0.07147131981648
O            2.31335523355362        0.02900043016144        0.15171119587655
C            1.52943715010744       -0.38867194199807       -0.83732901745570
O            1.93811659856311       -0.80384666709116       -1.90362819619881
C            0.10713406814868       -0.29298210986175       -0.49665905169899
C           -0.97814831766602       -0.63468363146394       -1.25670614095005
C           -2.12204025283265       -0.34482659956051       -0.46376000746133
C           -3.50308296474784       -0.45914316294799       -0.64097408680235
C           -4.32300971854619       -0.06434630401665        0.39121970537583
C           -3.80076659826895        0.43949539437162        1.58785975079281
C           -2.44164438689384        0.56421302901842        1.78983113291659
C           -1.61082869235816        0.16582772745534        0.75093868551439
O           -0.26129070633348        0.19270543609431        0.72152915534690
H            5.49915961204810        0.48402770358067        1.01726351545968
H            4.16884692908327       -0.10251592320648        2.02946099961149
H            4.11348227655469        1.53226742904769        1.36392329257172
H            4.01365151858949       -1.05484513195426       -0.28472621882683
H            3.96301338160569        0.58619996180321       -0.95464097867783
H           -0.94636345515218       -1.03764136011694       -2.24806640312433
H           -3.90492481123086       -0.84757315738597       -1.56348546725187
H           -5.39405534701423       -0.14239246945760        0.28219932890833
H           -4.48014437283179        0.73715912894464        2.37180558845876
H           -2.03201729813864        0.95151441179578        2.70846098301948
