      -----------------------------------------------------------      
     |                   =====================                   |     
     |                           x T B                           |     
     |                   =====================                   |     
     |                         S. Grimme                         |     
     |          Mulliken Center for Theoretical Chemistry        |     
     |                    University of Bonn                     |     
      -----------------------------------------------------------      

   * xtb version 6.7.1 (edcfbbe) compiled by 'VssAdministrator@runnervm171ch' on 2026-06-10

   xtb is free software: you can redistribute it and/or modify it under
   the terms of the GNU Lesser General Public License as published by
   the Free Software Foundation, either version 3 of the License, or
   (at your option) any later version.
   
   xtb is distributed in the hope that it will be useful,
   but WITHOUT ANY WARRANTY; without even the implied warranty of
   MERCHANTABILITY or FITNESS FOR A PARTICULAR PURPOSE.  See the
   GNU Lesser General Public License for more details.
   
   Cite this work as:
   * C. Bannwarth, E. Caldeweyher, S. Ehlert, A. Hansen, P. Pracht,
     J. Seibert, S. Spicher, S. Grimme, WIREs Comput. Mol. Sci., 2020, 11,
     e01493. DOI: 10.1002/wcms.1493
   
   for GFN2-xTB:
   * C. Bannwarth, S. Ehlert and S. Grimme., J. Chem. Theory Comput., 2019,
     15, 1652-1671. DOI: 10.1021/acs.jctc.8b01176
   for GFN1-xTB:
   * S. Grimme, C. Bannwarth, P. Shushkov, J. Chem. Theory Comput., 2017,
     13, 1989-2009. DOI: 10.1021/acs.jctc.7b00118
   for GFN0-xTB:
   * P. Pracht, E. Caldeweyher, S. Ehlert, S. Grimme, ChemRxiv, 2019, preprint.
     DOI: 10.26434/chemrxiv.8326202.v1
   for GFN-FF:
   * S. Spicher and S. Grimme, Angew. Chem. Int. Ed., 2020, 59, 15665-15673.
     DOI: 10.1002/anie.202004239
   
   for ALPB and GBSA implicit solvation:
   * S. Ehlert, M. Stahn, S. Spicher, S. Grimme, J. Chem. Theory Comput.,
     2021, 17, 4250-4261. DOI: 10.1021/acs.jctc.1c00471
   
   for ddCOSMO and CPCM-X implicit solvation:
   * M. Stahn, S. Ehlert, S. Grimme, J. Phys. Chem. A,
     2023, XX, XXXX-XXXX. DOI: 10.1021/acs.jpca.3c04382
   
   for DFT-D4:
   * E. Caldeweyher, C. Bannwarth and S. Grimme, J. Chem. Phys., 2017,
     147, 034112. DOI: 10.1063/1.4993215
   * E. Caldeweyher, S. Ehlert, A. Hansen, H. Neugebauer, S. Spicher,
     C. Bannwarth and S. Grimme, J. Chem. Phys., 2019, 150, 154122.
     DOI: 10.1063/1.5090222
   * E. Caldeweyher, J.-M. Mewes, S. Ehlert and S. Grimme, Phys. Chem. Chem. Phys.
     2020, 22, 8499-8512. DOI: 10.1039/D0CP00502A
   
   for sTDA-xTB:
   * S. Grimme and C. Bannwarth, J. Chem. Phys., 2016, 145, 054103.
     DOI: 10.1063/1.4959605
   
   in the mass-spec context:
   * V. Asgeirsson, C. Bauer and S. Grimme, Chem. Sci., 2017, 8, 4879.
     DOI: 10.1039/c7sc00601b
   * J. Koopman and S. Grimme, ACS Omega 2019, 4, 12, 15120-15133.
     DOI: 10.1021/acsomega.9b02011
   
   for metadynamics refer to:
   * S. Grimme, J. Chem. Theory Comput., 2019, 155, 2847-2862
     DOI: 10.1021/acs.jctc.9b00143
   
   for SPH calculations refer to:
   * S. Spicher and S. Grimme, J. Chem. Theory Comput., 2021, 17, 1701-1714
     DOI: 10.1021/acs.jctc.0c01306
   
   for ONIOM refer to:
   * C. Plett, A. Katbashev, S. Ehlert, S. Grimme, M. Bursch,
     Phys. Chem. Chem. Phys., 2023, 25, 17860-17868. DOI: 10.1039/D3CP02178E
   
   for DIPRO refer to:
   * J. Kohn, N. Gildemeister, S. Grimme, D. Fazzi, A. Hansen,
     J. Chem. Phys., 2023, just accepted.
   
   for PTB refer to:
   * S. Grimme, M. Mueller, A. Hansen, J. Chem. Phys., 2023, 158, 124111.
     DOI: 10.1063/5.0137838
   
   with help from (in alphabetical order)
   P. Atkinson, C. Bannwarth, F. Bohle, G. Brandenburg, E. Caldeweyher
   M. Checinski, S. Dohm, S. Ehlert, S. Ehrlich, I. Gerasimov, C. Hölzer
   A. Katbashev, J. Kohn, J. Koopman, C. Lavigne, S. Lehtola, F. März, M. Müller,
   F. Musil, H. Neugebauer, J. Pisarek, C. Plett, P. Pracht, F. Pultar,
   J. Seibert, P. Shushkov, S. Spicher, M. Stahn, M. Steiner, T. Strunk,
   J. Stückrath, T. Rose, and J. Unsleber
   
 * started run on 2026/09/27 at 14:01:47.465     
   ID    Z sym.   atoms
    1    6 C      1, 3-10
    2    7 N      2
    3    1 H      11-19

           -------------------------------------------------
          |                Calculation Setup                |
           -------------------------------------------------

          program call               : xtb input.xyz --gfn 2 --chrg -1 --uhf 1 --scc --json --parallel 1 --norestart
          coordinate file            : input.xyz
          omp threads                :                     1


           -------------------------------------------------
          |                 G F N 2 - x T B                 |
           -------------------------------------------------

        Reference                      10.1021/acs.jctc.8b01176
      * Hamiltonian:
        H0-scaling (s, p, d)           1.850000    2.230000    2.230000
        zeta-weighting                 0.500000
      * Dispersion:
        s8                             2.700000
        a1                             0.520000
        a2                             5.000000
        s9                             5.000000
      * Repulsion:
        kExp                           1.500000    1.000000
        rExp                           1.000000
      * Coulomb:
        alpha                          2.000000
        third order                    shell-resolved
        anisotropic                    true
        a3                             3.000000
        a5                             4.000000
        cn-shift                       1.200000
        cn-exp                         4.000000
        max-rad                        5.000000


          ...................................................
          :                      SETUP                      :
          :.................................................:
          :  # basis functions                  49          :
          :  # atomic orbitals                  49          :
          :  # shells                           29          :
          :  # electrons                        51          :
          :  max. iterations                   250          :
          :  Hamiltonian                  GFN2-xTB          :
          :  restarted?                      false          :
          :  GBSA solvation                  false          :
          :  PC potential                    false          :
          :  electronic temp.          300.0000000     K    :
          :  accuracy                    1.0000000          :
          :  -> integral cutoff          0.2500000E+02      :
          :  -> integral neglect         0.1000000E-07      :
          :  -> SCF convergence          0.1000000E-05 Eh   :
          :  -> wf. convergence          0.1000000E-03 e    :
          :  Broyden damping             0.4000000          :
          :  net charge                         -1          :
          :  unpaired electrons                  1          :
          ...................................................

 iter      E             dE          RMSdq      gap      omega  full diag
   1    -27.3074360 -0.273074E+02  0.308E+00    0.96       0.0  T
   2    -27.3673263 -0.598903E-01  0.242E+00    0.79       1.0  T
   3    -27.3828196 -0.154934E-01  0.135E+00    0.71       1.0  T
   4    -27.3780984  0.472121E-02  0.962E-01    0.84       1.0  T
   5    -27.3895926 -0.114942E-01  0.156E-01    0.71       1.0  T
   6    -27.3898269 -0.234279E-03  0.792E-02    0.73       1.0  T
   7    -27.3899099 -0.829792E-04  0.378E-02    0.72       1.0  T
   8    -27.3899225 -0.126330E-04  0.157E-02    0.72       1.5  T
   9    -27.3899230 -0.497046E-06  0.430E-03    0.72       5.3  T
  10    -27.3899232 -0.187707E-06  0.128E-03    0.72      18.0  T
  11    -27.3899232 -0.752768E-08  0.560E-04    0.72      41.0  T
  12    -27.3899232 -0.180280E-08  0.237E-04    0.72      96.7  T

   *** convergence criteria satisfied after 12 iterations ***

         #    Occupation            Energy/Eh            Energy/eV
      -------------------------------------------------------------
         1        2.0000           -0.4937887             -13.4367
       ...           ...                  ...                  ...
        20        2.0000           -0.2408388              -6.5536
        21        2.0000           -0.2263339              -6.1589
        22        2.0000           -0.2151481              -5.8545
        23        2.0000           -0.2046392              -5.5685
        24        2.0000           -0.1719311              -4.6785
        25        2.0000           -0.1545880              -4.2066
        26        1.0000           -0.0175841              -0.4785 (HOMO)
        27        0.0000            0.0088432               0.2406 (LUMO)
        28                          0.0518175               1.4100
        29                          0.1405198               3.8237
        30                          0.1951046               5.3091
        31                          0.2724045               7.4125
       ...                                ...                  ...
        49                          0.9386846              25.5429
      -------------------------------------------------------------
                  HL-Gap            0.0264273 Eh            0.7191 eV
             Fermi-level           -0.0452283 Eh           -1.2307 eV

 SCC (total)                   0 d,  0 h,  0 min,  0.030 sec
 SCC setup                      ...        0 min,  0.000 sec (  1.338%)
 Dispersion                     ...        0 min,  0.000 sec (  0.710%)
 classical contributions        ...        0 min,  0.000 sec (  0.193%)
 integral evaluation            ...        0 min,  0.003 sec (  9.365%)
 iterations                     ...        0 min,  0.019 sec ( 62.687%)
 molecular gradient             ...        0 min,  0.007 sec ( 23.550%)
 printout                       ...        0 min,  0.001 sec (  2.044%)

         :::::::::::::::::::::::::::::::::::::::::::::::::::::
         ::                     SUMMARY                     ::
         :::::::::::::::::::::::::::::::::::::::::::::::::::::
         :: total energy             -26.908526652512 Eh    ::
         :: gradient norm              0.102263088218 Eh/a0 ::
         :: HOMO-LUMO gap              0.719124387618 eV    ::
         ::.................................................::
         :: SCC energy               -27.389873947299 Eh    ::
         :: -> isotropic ES            0.107834526283 Eh    ::
         :: -> anisotropic ES          0.022577647768 Eh    ::
         :: -> anisotropic XC          0.012155551207 Eh    ::
         :: -> dispersion             -0.019054174715 Eh    ::
         :: repulsion energy           0.481347294788 Eh    ::
         :: add. restraining           0.000000000000 Eh    ::
         :: total charge              -1.000000000000 e     ::
         :::::::::::::::::::::::::::::::::::::::::::::::::::::

           -------------------------------------------------
          |                Property Printout                |
           -------------------------------------------------

    * Orbital Energies and Occupations

         #    Occupation            Energy/Eh            Energy/eV
      -------------------------------------------------------------
         1        2.0000           -0.4937887             -13.4367
       ...           ...                  ...                  ...
        14        2.0000           -0.3054075              -8.3106
        15        2.0000           -0.2969998              -8.0818
        16        2.0000           -0.2827541              -7.6941
        17        2.0000           -0.2782117              -7.5705
        18        2.0000           -0.2617101              -7.1215
        19        2.0000           -0.2555199              -6.9530
        20        2.0000           -0.2408388              -6.5536
        21        2.0000           -0.2263339              -6.1589
        22        2.0000           -0.2151481              -5.8545
        23        2.0000           -0.2046392              -5.5685
        24        2.0000           -0.1719311              -4.6785
        25        2.0000           -0.1545880              -4.2066
        26        1.0000           -0.0175841              -0.4785 (HOMO)
        27        0.0000            0.0088432               0.2406 (LUMO)
        28                          0.0518175               1.4100
        29                          0.1405198               3.8237
        30                          0.1951046               5.3091
        31                          0.2724045               7.4125
        32                          0.2838441               7.7238
        33                          0.3127972               8.5116
        34                          0.3335524               9.0764
        35                          0.3352718               9.1232
        36                          0.3365210               9.1572
        37                          0.3419528               9.3050
       ...                                ...                  ...
        49                          0.9386846              25.5429
      -------------------------------------------------------------
                  HL-Gap            0.0264273 Eh            0.7191 eV
             Fermi-level           -0.0452283 Eh           -1.2307 eV

     #   Z          covCN         q      C6AA      α(0)
     1   6 C        3.690    -0.015    21.034     6.564
     2   7 N        2.820    -0.080    22.790     7.090
     3   6 C        3.051    -0.075    29.808     8.954
     4   6 C        3.008    -0.115    30.902     9.119
     5   6 C        3.116    -0.049    29.052     8.829
     6   6 C        2.911    -0.108    30.726     9.089
     7   6 C        2.919    -0.066    29.650     8.929
     8   6 C        2.923    -0.088    30.214     9.014
     9   6 C        2.908    -0.118    31.007     9.131
    10   6 C        3.108     0.015    27.532     8.597
    11   1 H        0.924     0.016     2.788     2.611
    12   1 H        0.924     0.016     2.788     2.611
    13   1 H        0.925     0.018     2.756     2.596
    14   1 H        0.926    -0.060     4.346     3.260
    15   1 H        0.926    -0.049     4.065     3.153
    16   1 H        0.926    -0.060     4.337     3.257
    17   1 H        0.926    -0.057     4.261     3.228
    18   1 H        0.926    -0.062     4.399     3.280
    19   1 H        0.926    -0.064     4.453     3.300

 Mol. C6AA /au·bohr⁶  :       4965.671608
 Mol. C8AA /au·bohr⁸  :     117358.075654
 Mol. α(0) /au        :        112.612215


Wiberg/Mayer (AO) data.
largest (>0.10) Wiberg bond orders for each atom

 ---------------------------------------------------------------------------
     #   Z sym  total        # sym  WBO       # sym  WBO       # sym  WBO
 ---------------------------------------------------------------------------
     1   6 C    3.995 --     2 N    1.021    13 H    0.984    11 H    0.977
                            12 H    0.977
     2   7 N    3.509 --    10 C    1.147     3 C    1.105     1 C    1.021
     3   6 C    3.817 --     4 C    1.441     2 N    1.105    14 H    0.966
     4   6 C    3.940 --     3 C    1.441     5 C    1.303    15 H    0.973
     5   6 C    3.971 --     4 C    1.303    10 C    1.259     6 C    1.214
     6   6 C    3.890 --     7 C    1.417     5 C    1.214    16 H    0.968
     7   6 C    3.976 --     8 C    1.437     6 C    1.417    17 H    0.970
     8   6 C    3.942 --     7 C    1.437     9 C    1.310    18 H    0.970
     9   6 C    3.890 --    10 C    1.327     8 C    1.310    19 H    0.966
    10   6 C    3.947 --     9 C    1.327     5 C    1.259     2 N    1.147
    11   1 H    0.999 --     1 C    0.977
    12   1 H    0.999 --     1 C    0.977
    13   1 H    0.999 --     1 C    0.984
    14   1 H    0.996 --     3 C    0.966
    15   1 H    0.997 --     4 C    0.973
    16   1 H    0.996 --     6 C    0.968
    17   1 H    0.996 --     7 C    0.970
    18   1 H    0.996 --     8 C    0.970
    19   1 H    0.995 --     9 C    0.966
 ---------------------------------------------------------------------------

Topologies differ in total number of bonds
Writing topology from bond orders to xtbtopo.mol

molecular dipole:
                 x           y           z       tot (Debye)
 q only:       -1.669      -0.559       0.039
   full:       -1.844      -0.676       0.053       4.994
molecular quadrupole (traceless):
                xx          xy          yy          xz          yz          zz
 q only:       -6.768       4.838      -3.575      -1.635       3.020      10.344
  q+dip:       -3.879       4.702      -1.835      -1.308       1.723       5.714
   full:       -4.494       4.780      -2.568      -1.400       2.149       7.063


           -------------------------------------------------
          | TOTAL ENERGY              -26.908526652512 Eh   |
          | GRADIENT NORM               0.102263088218 Eh/α |
          | HOMO-LUMO GAP               0.719124387618 eV   |
           -------------------------------------------------

------------------------------------------------------------------------
 * finished run on 2026/09/27 at 14:01:47.528     
------------------------------------------------------------------------
 total:
 * wall-time:     0 d,  0 h,  0 min,  0.062 sec
 *  cpu-time:     0 d,  0 h,  0 min,  0.000 sec
 * ratio c/w:     0.000 speedup
 SCF:
 * wall-time:     0 d,  0 h,  0 min,  0.030 sec
 *  cpu-time:     0 d,  0 h,  0 min,  0.000 sec
 * ratio c/w:     0.000 speedup

