16
 energy: -23.627640516444 gnorm: 0.000185843409 xtb: 6.7.1 (edcfbbe)
C           -2.07785603525182        0.65842222146900        0.19055159797243
C           -2.05570959341494       -0.72869984367190        0.01280549153729
C           -0.86855325625216       -1.41326025033728       -0.13610805158489
C            0.30865873791217       -0.67530200316337       -0.10340418252654
N            1.60940965032305       -1.07060692945327       -0.22049400428874
C            2.41798270821946        0.02747365143806       -0.11969299842558
C            1.66378205838597        1.14614890416245        0.06115365377254
C            0.30214013188251        0.73092115063507        0.07654401282884
C           -0.91564711168222        1.39587168920414        0.22347459312604
H           -3.03126858371139        1.15516697444393        0.30298194905373
H           -2.99031676775766       -1.27062356384660       -0.00730638130566
H           -0.85342709554040       -2.48488869128024       -0.27316552492851
H            1.92347047739736       -2.01675479878836       -0.35384643683602
H            3.48487030026490       -0.07162454832836       -0.18569493864869
H            2.02321967002169        2.15029826276100        0.17138837220753
H           -0.94075429079653        2.46745777475573        0.36081184804621
