      -----------------------------------------------------------      
     |                   =====================                   |     
     |                           x T B                           |     
     |                   =====================                   |     
     |                         S. Grimme                         |     
     |          Mulliken Center for Theoretical Chemistry        |     
     |                    University of Bonn                     |     
      -----------------------------------------------------------      

   * xtb version 6.7.1 (edcfbbe) compiled by 'VssAdministrator@runnervm171ch' on 2026-06-10

   xtb is free software: you can redistribute it and/or modify it under
   the terms of the GNU Lesser General Public License as published by
   the Free Software Foundation, either version 3 of the License, or
   (at your option) any later version.
   
   xtb is distributed in the hope that it will be useful,
   but WITHOUT ANY WARRANTY; without even the implied warranty of
   MERCHANTABILITY or FITNESS FOR A PARTICULAR PURPOSE.  See the
   GNU Lesser General Public License for more details.
   
   Cite this work as:
   * C. Bannwarth, E. Caldeweyher, S. Ehlert, A. Hansen, P. Pracht,
     J. Seibert, S. Spicher, S. Grimme, WIREs Comput. Mol. Sci., 2020, 11,
     e01493. DOI: 10.1002/wcms.1493
   
   for GFN2-xTB:
   * C. Bannwarth, S. Ehlert and S. Grimme., J. Chem. Theory Comput., 2019,
     15, 1652-1671. DOI: 10.1021/acs.jctc.8b01176
   for GFN1-xTB:
   * S. Grimme, C. Bannwarth, P. Shushkov, J. Chem. Theory Comput., 2017,
     13, 1989-2009. DOI: 10.1021/acs.jctc.7b00118
   for GFN0-xTB:
   * P. Pracht, E. Caldeweyher, S. Ehlert, S. Grimme, ChemRxiv, 2019, preprint.
     DOI: 10.26434/chemrxiv.8326202.v1
   for GFN-FF:
   * S. Spicher and S. Grimme, Angew. Chem. Int. Ed., 2020, 59, 15665-15673.
     DOI: 10.1002/anie.202004239
   
   for ALPB and GBSA implicit solvation:
   * S. Ehlert, M. Stahn, S. Spicher, S. Grimme, J. Chem. Theory Comput.,
     2021, 17, 4250-4261. DOI: 10.1021/acs.jctc.1c00471
   
   for ddCOSMO and CPCM-X implicit solvation:
   * M. Stahn, S. Ehlert, S. Grimme, J. Phys. Chem. A,
     2023, XX, XXXX-XXXX. DOI: 10.1021/acs.jpca.3c04382
   
   for DFT-D4:
   * E. Caldeweyher, C. Bannwarth and S. Grimme, J. Chem. Phys., 2017,
     147, 034112. DOI: 10.1063/1.4993215
   * E. Caldeweyher, S. Ehlert, A. Hansen, H. Neugebauer, S. Spicher,
     C. Bannwarth and S. Grimme, J. Chem. Phys., 2019, 150, 154122.
     DOI: 10.1063/1.5090222
   * E. Caldeweyher, J.-M. Mewes, S. Ehlert and S. Grimme, Phys. Chem. Chem. Phys.
     2020, 22, 8499-8512. DOI: 10.1039/D0CP00502A
   
   for sTDA-xTB:
   * S. Grimme and C. Bannwarth, J. Chem. Phys., 2016, 145, 054103.
     DOI: 10.1063/1.4959605
   
   in the mass-spec context:
   * V. Asgeirsson, C. Bauer and S. Grimme, Chem. Sci., 2017, 8, 4879.
     DOI: 10.1039/c7sc00601b
   * J. Koopman and S. Grimme, ACS Omega 2019, 4, 12, 15120-15133.
     DOI: 10.1021/acsomega.9b02011
   
   for metadynamics refer to:
   * S. Grimme, J. Chem. Theory Comput., 2019, 155, 2847-2862
     DOI: 10.1021/acs.jctc.9b00143
   
   for SPH calculations refer to:
   * S. Spicher and S. Grimme, J. Chem. Theory Comput., 2021, 17, 1701-1714
     DOI: 10.1021/acs.jctc.0c01306
   
   for ONIOM refer to:
   * C. Plett, A. Katbashev, S. Ehlert, S. Grimme, M. Bursch,
     Phys. Chem. Chem. Phys., 2023, 25, 17860-17868. DOI: 10.1039/D3CP02178E
   
   for DIPRO refer to:
   * J. Kohn, N. Gildemeister, S. Grimme, D. Fazzi, A. Hansen,
     J. Chem. Phys., 2023, just accepted.
   
   for PTB refer to:
   * S. Grimme, M. Mueller, A. Hansen, J. Chem. Phys., 2023, 158, 124111.
     DOI: 10.1063/5.0137838
   
   with help from (in alphabetical order)
   P. Atkinson, C. Bannwarth, F. Bohle, G. Brandenburg, E. Caldeweyher
   M. Checinski, S. Dohm, S. Ehlert, S. Ehrlich, I. Gerasimov, C. Hölzer
   A. Katbashev, J. Kohn, J. Koopman, C. Lavigne, S. Lehtola, F. März, M. Müller,
   F. Musil, H. Neugebauer, J. Pisarek, C. Plett, P. Pracht, F. Pultar,
   J. Seibert, P. Shushkov, S. Spicher, M. Stahn, M. Steiner, T. Strunk,
   J. Stückrath, T. Rose, and J. Unsleber
   
 * started run on 2026/09/27 at 14:01:46.562     
   ID    Z sym.   atoms
    1    6 C      1-4, 6-9
    2    7 N      5
    3    1 H      10-16

           -------------------------------------------------
          |                Calculation Setup                |
           -------------------------------------------------

          program call               : xtb input.xyz --gfn 2 --chrg 1 --uhf 1 --scc --json --parallel 1 --norestart
          coordinate file            : input.xyz
          omp threads                :                     1


           -------------------------------------------------
          |                 G F N 2 - x T B                 |
           -------------------------------------------------

        Reference                      10.1021/acs.jctc.8b01176
      * Hamiltonian:
        H0-scaling (s, p, d)           1.850000    2.230000    2.230000
        zeta-weighting                 0.500000
      * Dispersion:
        s8                             2.700000
        a1                             0.520000
        a2                             5.000000
        s9                             5.000000
      * Repulsion:
        kExp                           1.500000    1.000000
        rExp                           1.000000
      * Coulomb:
        alpha                          2.000000
        third order                    shell-resolved
        anisotropic                    true
        a3                             3.000000
        a5                             4.000000
        cn-shift                       1.200000
        cn-exp                         4.000000
        max-rad                        5.000000


          ...................................................
          :                      SETUP                      :
          :.................................................:
          :  # basis functions                  43          :
          :  # atomic orbitals                  43          :
          :  # shells                           25          :
          :  # electrons                        43          :
          :  max. iterations                   250          :
          :  Hamiltonian                  GFN2-xTB          :
          :  restarted?                      false          :
          :  GBSA solvation                  false          :
          :  PC potential                    false          :
          :  electronic temp.          300.0000000     K    :
          :  accuracy                    1.0000000          :
          :  -> integral cutoff          0.2500000E+02      :
          :  -> integral neglect         0.1000000E-07      :
          :  -> SCF convergence          0.1000000E-05 Eh   :
          :  -> wf. convergence          0.1000000E-03 e    :
          :  Broyden damping             0.4000000          :
          :  net charge                          1          :
          :  unpaired electrons                  1          :
          ...................................................

 iter      E             dE          RMSdq      gap      omega  full diag
   1    -23.4714328 -0.234714E+02  0.530E+00    3.37       0.0  T
   2    -23.5587374 -0.873046E-01  0.385E+00    3.87       1.0  T
   3    -23.5811329 -0.223956E-01  0.217E+00    3.74       1.0  T
   4    -23.5670261  0.141068E-01  0.137E+00    3.79       1.0  T
   5    -23.5853029 -0.182768E-01  0.416E-01    3.79       1.0  T
   6    -23.5868677 -0.156486E-02  0.175E-01    3.78       1.0  T
   7    -23.5871465 -0.278772E-03  0.121E-01    3.80       1.0  T
   8    -23.5873861 -0.239619E-03  0.468E-02    3.79       1.0  T
   9    -23.5873994 -0.133043E-04  0.276E-02    3.80       1.0  T
  10    -23.5874077 -0.826790E-05  0.812E-03    3.80       3.1  T
  11    -23.5874087 -0.103348E-05  0.229E-03    3.80      10.9  T
  12    -23.5874087 -0.219971E-07  0.134E-03    3.80      18.6  T
  13    -23.5874087 -0.104695E-07  0.262E-04    3.80      95.2  T
  14    -23.5874087 -0.298893E-09  0.120E-04    3.80     208.5  T

   *** convergence criteria satisfied after 14 iterations ***

         #    Occupation            Energy/Eh            Energy/eV
      -------------------------------------------------------------
         1        2.0000           -0.8818560             -23.9965
       ...           ...                  ...                  ...
        16        2.0000           -0.6573586             -17.8876
        17        2.0000           -0.6501924             -17.6926
        18        2.0000           -0.6264891             -17.0476
        19        2.0000           -0.6169360             -16.7877
        20        2.0000           -0.6062614             -16.4972
        21        1.9895           -0.5829563             -15.8630
        22        1.0105           -0.5743194             -15.6280 (HOMO)
        23                         -0.4348086             -11.8317 (LUMO)
        24                         -0.3960670             -10.7775
        25                         -0.3631139              -9.8808
        26                         -0.2708961              -7.3715
        27                         -0.1638265              -4.4579
       ...                                ...                  ...
        43                          0.5249779              14.2854
      -------------------------------------------------------------
                  HL-Gap            0.1395108 Eh            3.7963 eV
             Fermi-level           -0.5416009 Eh          -14.7377 eV

 SCC (total)                   0 d,  0 h,  0 min,  0.027 sec
 SCC setup                      ...        0 min,  0.000 sec (  1.767%)
 Dispersion                     ...        0 min,  0.000 sec (  0.739%)
 classical contributions        ...        0 min,  0.000 sec (  0.297%)
 integral evaluation            ...        0 min,  0.002 sec (  7.262%)
 iterations                     ...        0 min,  0.018 sec ( 67.424%)
 molecular gradient             ...        0 min,  0.006 sec ( 20.550%)
 printout                       ...        0 min,  0.001 sec (  1.856%)

         :::::::::::::::::::::::::::::::::::::::::::::::::::::
         ::                     SUMMARY                     ::
         :::::::::::::::::::::::::::::::::::::::::::::::::::::
         :: total energy             -23.149055161989 Eh    ::
         :: gradient norm              0.081089257293 Eh/a0 ::
         :: HOMO-LUMO gap              3.796281875551 eV    ::
         ::.................................................::
         :: SCC energy               -23.587384184491 Eh    ::
         :: -> isotropic ES            0.088310022228 Eh    ::
         :: -> anisotropic ES         -0.016770757112 Eh    ::
         :: -> anisotropic XC          0.018673715607 Eh    ::
         :: -> dispersion             -0.012476359008 Eh    ::
         :: repulsion energy           0.438329022502 Eh    ::
         :: add. restraining           0.000000000000 Eh    ::
         :: total charge               1.000000000000 e     ::
         :::::::::::::::::::::::::::::::::::::::::::::::::::::

           -------------------------------------------------
          |                Property Printout                |
           -------------------------------------------------

    * Orbital Energies and Occupations

         #    Occupation            Energy/Eh            Energy/eV
      -------------------------------------------------------------
         1        2.0000           -0.8818560             -23.9965
       ...           ...                  ...                  ...
        10        2.0000           -0.7271318             -19.7863
        11        2.0000           -0.7071383             -19.2422
        12        2.0000           -0.6925245             -18.8446
        13        2.0000           -0.6823858             -18.5687
        14        2.0000           -0.6708344             -18.2543
        15        2.0000           -0.6627346             -18.0339
        16        2.0000           -0.6573586             -17.8876
        17        2.0000           -0.6501924             -17.6926
        18        2.0000           -0.6264891             -17.0476
        19        2.0000           -0.6169360             -16.7877
        20        2.0000           -0.6062614             -16.4972
        21        1.9895           -0.5829563             -15.8630
        22        1.0105           -0.5743194             -15.6280 (HOMO)
        23                         -0.4348086             -11.8317 (LUMO)
        24                         -0.3960670             -10.7775
        25                         -0.3631139              -9.8808
        26                         -0.2708961              -7.3715
        27                         -0.1638265              -4.4579
        28                         -0.0694713              -1.8904
        29                         -0.0503636              -1.3705
        30                         -0.0413492              -1.1252
        31                         -0.0290904              -0.7916
        32                         -0.0052099              -0.1418
        33                          0.0126585               0.3445
       ...                                ...                  ...
        43                          0.5249779              14.2854
      -------------------------------------------------------------
                  HL-Gap            0.1395108 Eh            3.7963 eV
             Fermi-level           -0.5416009 Eh          -14.7377 eV

     #   Z          covCN         q      C6AA      α(0)
     1   6 C        2.919    -0.009    28.247     8.716
     2   6 C        2.924     0.009    27.819     8.650
     3   6 C        2.908     0.004    27.939     8.667
     4   6 C        3.092     0.064    26.472     8.433
     5   7 N        2.781    -0.022    21.672     6.914
     6   6 C        3.033     0.047    26.914     8.509
     7   6 C        3.010     0.003    27.946     8.672
     8   6 C        3.117     0.016    27.501     8.590
     9   6 C        2.911     0.025    27.439     8.589
    10   1 H        0.926     0.102     1.764     2.077
    11   1 H        0.926     0.106     1.733     2.059
    12   1 H        0.926     0.099     1.798     2.097
    13   1 H        0.860     0.220     1.008     1.572
    14   1 H        0.926     0.116     1.647     2.007
    15   1 H        0.926     0.115     1.652     2.010
    16   1 H        0.926     0.106     1.730     2.057

 Mol. C6AA /au·bohr⁶  :       3077.510356
 Mol. C8AA /au·bohr⁸  :      77469.235227
 Mol. α(0) /au        :         89.617801


Wiberg/Mayer (AO) data.
largest (>0.10) Wiberg bond orders for each atom

 ---------------------------------------------------------------------------
     #   Z sym  total        # sym  WBO       # sym  WBO       # sym  WBO
 ---------------------------------------------------------------------------
     1   6 C    3.974 --     2 C    1.447     9 C    1.406    10 H    0.961
     2   6 C    3.958 --     1 C    1.447     3 C    1.349    11 H    0.961
     3   6 C    3.947 --     4 C    1.382     2 C    1.349    12 H    0.959
     4   6 C    3.957 --     3 C    1.382     8 C    1.240     5 N    1.145
     5   7 N    3.647 --     6 C    1.358     4 C    1.145    13 H    0.925
     6   6 C    3.935 --     7 C    1.410     5 N    1.358    14 H    0.958
     7   6 C    3.909 --     6 C    1.410     8 C    1.271    15 H    0.960
     8   6 C    3.985 --     9 C    1.287     7 C    1.271     4 C    1.240
     9   6 C    3.919 --     1 C    1.406     8 C    1.287    16 H    0.959
    10   1 H    0.989 --     1 C    0.961
    11   1 H    0.988 --     2 C    0.961
    12   1 H    0.990 --     3 C    0.959
    13   1 H    0.951 --     5 N    0.925
    14   1 H    0.986 --     6 C    0.958
    15   1 H    0.986 --     7 C    0.960
    16   1 H    0.988 --     9 C    0.959
 ---------------------------------------------------------------------------

Topologies differ in total number of bonds
Writing topology from bond orders to xtbtopo.mol

molecular dipole:
                 x           y           z       tot (Debye)
 q only:        0.627      -0.360      -0.077
   full:        0.799      -0.553      -0.109       2.485
molecular quadrupole (traceless):
                xx          xy          yy          xz          yz          zz
 q only:       12.270      -1.828       1.895      -1.598       2.180     -14.165
  q+dip:       13.728      -2.576       5.025      -2.005       3.214     -18.753
   full:       11.923      -2.682       2.852      -1.716       2.423     -14.775


           -------------------------------------------------
          | TOTAL ENERGY              -23.149055161989 Eh   |
          | GRADIENT NORM               0.081089257293 Eh/α |
          | HOMO-LUMO GAP               3.796281875551 eV   |
           -------------------------------------------------

------------------------------------------------------------------------
 * finished run on 2026/09/27 at 14:01:46.616     
------------------------------------------------------------------------
 total:
 * wall-time:     0 d,  0 h,  0 min,  0.054 sec
 *  cpu-time:     0 d,  0 h,  0 min,  0.000 sec
 * ratio c/w:     0.000 speedup
 SCF:
 * wall-time:     0 d,  0 h,  0 min,  0.027 sec
 *  cpu-time:     0 d,  0 h,  0 min,  0.000 sec
 * ratio c/w:     0.000 speedup

