      -----------------------------------------------------------      
     |                   =====================                   |     
     |                           x T B                           |     
     |                   =====================                   |     
     |                         S. Grimme                         |     
     |          Mulliken Center for Theoretical Chemistry        |     
     |                    University of Bonn                     |     
      -----------------------------------------------------------      

   * xtb version 6.7.1 (edcfbbe) compiled by 'VssAdministrator@runnervm171ch' on 2026-06-10

   xtb is free software: you can redistribute it and/or modify it under
   the terms of the GNU Lesser General Public License as published by
   the Free Software Foundation, either version 3 of the License, or
   (at your option) any later version.
   
   xtb is distributed in the hope that it will be useful,
   but WITHOUT ANY WARRANTY; without even the implied warranty of
   MERCHANTABILITY or FITNESS FOR A PARTICULAR PURPOSE.  See the
   GNU Lesser General Public License for more details.
   
   Cite this work as:
   * C. Bannwarth, E. Caldeweyher, S. Ehlert, A. Hansen, P. Pracht,
     J. Seibert, S. Spicher, S. Grimme, WIREs Comput. Mol. Sci., 2020, 11,
     e01493. DOI: 10.1002/wcms.1493
   
   for GFN2-xTB:
   * C. Bannwarth, S. Ehlert and S. Grimme., J. Chem. Theory Comput., 2019,
     15, 1652-1671. DOI: 10.1021/acs.jctc.8b01176
   for GFN1-xTB:
   * S. Grimme, C. Bannwarth, P. Shushkov, J. Chem. Theory Comput., 2017,
     13, 1989-2009. DOI: 10.1021/acs.jctc.7b00118
   for GFN0-xTB:
   * P. Pracht, E. Caldeweyher, S. Ehlert, S. Grimme, ChemRxiv, 2019, preprint.
     DOI: 10.26434/chemrxiv.8326202.v1
   for GFN-FF:
   * S. Spicher and S. Grimme, Angew. Chem. Int. Ed., 2020, 59, 15665-15673.
     DOI: 10.1002/anie.202004239
   
   for ALPB and GBSA implicit solvation:
   * S. Ehlert, M. Stahn, S. Spicher, S. Grimme, J. Chem. Theory Comput.,
     2021, 17, 4250-4261. DOI: 10.1021/acs.jctc.1c00471
   
   for ddCOSMO and CPCM-X implicit solvation:
   * M. Stahn, S. Ehlert, S. Grimme, J. Phys. Chem. A,
     2023, XX, XXXX-XXXX. DOI: 10.1021/acs.jpca.3c04382
   
   for DFT-D4:
   * E. Caldeweyher, C. Bannwarth and S. Grimme, J. Chem. Phys., 2017,
     147, 034112. DOI: 10.1063/1.4993215
   * E. Caldeweyher, S. Ehlert, A. Hansen, H. Neugebauer, S. Spicher,
     C. Bannwarth and S. Grimme, J. Chem. Phys., 2019, 150, 154122.
     DOI: 10.1063/1.5090222
   * E. Caldeweyher, J.-M. Mewes, S. Ehlert and S. Grimme, Phys. Chem. Chem. Phys.
     2020, 22, 8499-8512. DOI: 10.1039/D0CP00502A
   
   for sTDA-xTB:
   * S. Grimme and C. Bannwarth, J. Chem. Phys., 2016, 145, 054103.
     DOI: 10.1063/1.4959605
   
   in the mass-spec context:
   * V. Asgeirsson, C. Bauer and S. Grimme, Chem. Sci., 2017, 8, 4879.
     DOI: 10.1039/c7sc00601b
   * J. Koopman and S. Grimme, ACS Omega 2019, 4, 12, 15120-15133.
     DOI: 10.1021/acsomega.9b02011
   
   for metadynamics refer to:
   * S. Grimme, J. Chem. Theory Comput., 2019, 155, 2847-2862
     DOI: 10.1021/acs.jctc.9b00143
   
   for SPH calculations refer to:
   * S. Spicher and S. Grimme, J. Chem. Theory Comput., 2021, 17, 1701-1714
     DOI: 10.1021/acs.jctc.0c01306
   
   for ONIOM refer to:
   * C. Plett, A. Katbashev, S. Ehlert, S. Grimme, M. Bursch,
     Phys. Chem. Chem. Phys., 2023, 25, 17860-17868. DOI: 10.1039/D3CP02178E
   
   for DIPRO refer to:
   * J. Kohn, N. Gildemeister, S. Grimme, D. Fazzi, A. Hansen,
     J. Chem. Phys., 2023, just accepted.
   
   for PTB refer to:
   * S. Grimme, M. Mueller, A. Hansen, J. Chem. Phys., 2023, 158, 124111.
     DOI: 10.1063/5.0137838
   
   with help from (in alphabetical order)
   P. Atkinson, C. Bannwarth, F. Bohle, G. Brandenburg, E. Caldeweyher
   M. Checinski, S. Dohm, S. Ehlert, S. Ehrlich, I. Gerasimov, C. Hölzer
   A. Katbashev, J. Kohn, J. Koopman, C. Lavigne, S. Lehtola, F. März, M. Müller,
   F. Musil, H. Neugebauer, J. Pisarek, C. Plett, P. Pracht, F. Pultar,
   J. Seibert, P. Shushkov, S. Spicher, M. Stahn, M. Steiner, T. Strunk,
   J. Stückrath, T. Rose, and J. Unsleber
   
 * started run on 2026/09/27 at 14:01:45.897     
   ID    Z sym.   atoms
    1    6 C      1, 3-8
    2    8 O      2
    3    1 H      9-16

           -------------------------------------------------
          |                Calculation Setup                |
           -------------------------------------------------

          program call               : xtb input.xyz --gfn 2 --chrg 1 --uhf 1 --scc --json --parallel 1 --norestart
          coordinate file            : input.xyz
          omp threads                :                     1


           -------------------------------------------------
          |                 G F N 2 - x T B                 |
           -------------------------------------------------

        Reference                      10.1021/acs.jctc.8b01176
      * Hamiltonian:
        H0-scaling (s, p, d)           1.850000    2.230000    2.230000
        zeta-weighting                 0.500000
      * Dispersion:
        s8                             2.700000
        a1                             0.520000
        a2                             5.000000
        s9                             5.000000
      * Repulsion:
        kExp                           1.500000    1.000000
        rExp                           1.000000
      * Coulomb:
        alpha                          2.000000
        third order                    shell-resolved
        anisotropic                    true
        a3                             3.000000
        a5                             4.000000
        cn-shift                       1.200000
        cn-exp                         4.000000
        max-rad                        5.000000


          ...................................................
          :                      SETUP                      :
          :.................................................:
          :  # basis functions                  40          :
          :  # atomic orbitals                  40          :
          :  # shells                           24          :
          :  # electrons                        41          :
          :  max. iterations                   250          :
          :  Hamiltonian                  GFN2-xTB          :
          :  restarted?                      false          :
          :  GBSA solvation                  false          :
          :  PC potential                    false          :
          :  electronic temp.          300.0000000     K    :
          :  accuracy                    1.0000000          :
          :  -> integral cutoff          0.2500000E+02      :
          :  -> integral neglect         0.1000000E-07      :
          :  -> SCF convergence          0.1000000E-05 Eh   :
          :  -> wf. convergence          0.1000000E-03 e    :
          :  Broyden damping             0.4000000          :
          :  net charge                          1          :
          :  unpaired electrons                  1          :
          ...................................................

 iter      E             dE          RMSdq      gap      omega  full diag
   1    -22.9687553 -0.229688E+02  0.496E+00    4.13       0.0  T
   2    -22.9878304 -0.190751E-01  0.303E+00    4.43       1.0  T
   3    -22.9759512  0.118792E-01  0.117E+00    4.30       1.0  T
   4    -22.9891223 -0.131711E-01  0.432E-01    4.48       1.0  T
   5    -22.9911733 -0.205108E-02  0.197E-01    4.42       1.0  T
   6    -22.9916633 -0.489970E-03  0.698E-02    4.46       1.0  T
   7    -22.9917005 -0.371765E-04  0.320E-02    4.45       1.0  T
   8    -22.9916989  0.163460E-05  0.208E-02    4.45       1.2  T
   9    -22.9917047 -0.586845E-05  0.591E-03    4.45       4.2  T
  10    -22.9917053 -0.539777E-06  0.174E-03    4.45      14.4  T
  11    -22.9917053 -0.663086E-08  0.812E-04    4.45      30.8  T
  12    -22.9917053 -0.231483E-08  0.271E-04    4.45      92.3  T

   *** convergence criteria satisfied after 12 iterations ***

         #    Occupation            Energy/Eh            Energy/eV
      -------------------------------------------------------------
         1        2.0000           -0.9325864             -25.3770
       ...           ...                  ...                  ...
        15        2.0000           -0.6723910             -18.2967
        16        2.0000           -0.6496627             -17.6782
        17        2.0000           -0.6478556             -17.6290
        18        2.0000           -0.6303810             -17.1535
        19        2.0000           -0.6150593             -16.7366
        20        2.0000           -0.6113129             -16.6347
        21        1.0000           -0.5922123             -16.1149 (HOMO)
        22                         -0.4286748             -11.6648 (LUMO)
        23                         -0.4258503             -11.5880
        24                         -0.2967279              -8.0744
        25                         -0.1750604              -4.7636
        26                         -0.0791352              -2.1534
       ...                                ...                  ...
        40                          0.4672287              12.7139
      -------------------------------------------------------------
                  HL-Gap            0.1635375 Eh            4.4501 eV
             Fermi-level           -0.5560985 Eh          -15.1322 eV

 SCC (total)                   0 d,  0 h,  0 min,  0.017 sec
 SCC setup                      ...        0 min,  0.000 sec (  1.712%)
 Dispersion                     ...        0 min,  0.000 sec (  0.852%)
 classical contributions        ...        0 min,  0.000 sec (  0.256%)
 integral evaluation            ...        0 min,  0.002 sec (  9.386%)
 iterations                     ...        0 min,  0.010 sec ( 58.817%)
 molecular gradient             ...        0 min,  0.004 sec ( 26.432%)
 printout                       ...        0 min,  0.000 sec (  2.440%)

         :::::::::::::::::::::::::::::::::::::::::::::::::::::
         ::                     SUMMARY                     ::
         :::::::::::::::::::::::::::::::::::::::::::::::::::::
         :: total energy             -22.627771559102 Eh    ::
         :: gradient norm              0.082182112530 Eh/a0 ::
         :: HOMO-LUMO gap              4.450082222248 eV    ::
         ::.................................................::
         :: SCC energy               -22.991692659703 Eh    ::
         :: -> isotropic ES            0.094101653749 Eh    ::
         :: -> anisotropic ES         -0.013724510832 Eh    ::
         :: -> anisotropic XC          0.014983710210 Eh    ::
         :: -> dispersion             -0.010207208919 Eh    ::
         :: repulsion energy           0.363921100601 Eh    ::
         :: add. restraining           0.000000000000 Eh    ::
         :: total charge               1.000000000026 e     ::
         :::::::::::::::::::::::::::::::::::::::::::::::::::::

           -------------------------------------------------
          |                Property Printout                |
           -------------------------------------------------

    * Orbital Energies and Occupations

         #    Occupation            Energy/Eh            Energy/eV
      -------------------------------------------------------------
         1        2.0000           -0.9325864             -25.3770
       ...           ...                  ...                  ...
         9        2.0000           -0.7547544             -20.5379
        10        2.0000           -0.7353537             -20.0100
        11        2.0000           -0.7114744             -19.3602
        12        2.0000           -0.6902597             -18.7829
        13        2.0000           -0.6863924             -18.6777
        14        2.0000           -0.6823348             -18.5673
        15        2.0000           -0.6723910             -18.2967
        16        2.0000           -0.6496627             -17.6782
        17        2.0000           -0.6478556             -17.6290
        18        2.0000           -0.6303810             -17.1535
        19        2.0000           -0.6150593             -16.7366
        20        2.0000           -0.6113129             -16.6347
        21        1.0000           -0.5922123             -16.1149 (HOMO)
        22                         -0.4286748             -11.6648 (LUMO)
        23                         -0.4258503             -11.5880
        24                         -0.2967279              -8.0744
        25                         -0.1750604              -4.7636
        26                         -0.0791352              -2.1534
        27                         -0.0689656              -1.8767
        28                         -0.0336291              -0.9151
        29                         -0.0257552              -0.7008
        30                         -0.0062713              -0.1707
        31                          0.0004923               0.0134
        32                          0.0196841               0.5356
       ...                                ...                  ...
        40                          0.4672287              12.7139
      -------------------------------------------------------------
                  HL-Gap            0.1635375 Eh            4.4501 eV
             Fermi-level           -0.5560985 Eh          -15.1322 eV

     #   Z          covCN         q      C6AA      α(0)
     1   6 C        3.642    -0.002    20.973     6.584
     2   8 O        1.705    -0.118    16.094     5.416
     3   6 C        2.864     0.190    23.946     8.021
     4   6 C        2.920    -0.007    28.196     8.708
     5   6 C        2.920    -0.001    28.056     8.686
     6   6 C        2.918     0.032    27.286     8.566
     7   6 C        2.921     0.004    27.933     8.667
     8   6 C        2.917    -0.031    28.764     8.795
     9   1 H        0.925     0.129     1.542     1.942
    10   1 H        0.924     0.121     1.606     1.982
    11   1 H        0.924     0.121     1.604     1.981
    12   1 H        0.926     0.121     1.609     1.984
    13   1 H        0.926     0.113     1.673     2.023
    14   1 H        0.926     0.119     1.624     1.993
    15   1 H        0.926     0.110     1.698     2.038
    16   1 H        0.926     0.100     1.788     2.091

 Mol. C6AA /au·bohr⁶  :       2513.629300
 Mol. C8AA /au·bohr⁸  :      60835.693538
 Mol. α(0) /au        :         79.475393


Wiberg/Mayer (AO) data.
largest (>0.10) Wiberg bond orders for each atom

 ---------------------------------------------------------------------------
     #   Z sym  total        # sym  WBO       # sym  WBO       # sym  WBO
 ---------------------------------------------------------------------------
     1   6 C    3.894 --     2 O    0.994     9 H    0.966    10 H    0.926
                            11 H    0.925
     2   8 O    2.467 --     3 C    1.242     1 C    0.994
     3   6 C    3.906 --     8 C    1.264     2 O    1.242     4 C    1.225
     4   6 C    3.956 --     5 C    1.530     3 C    1.225    12 H    0.955
     5   6 C    3.978 --     4 C    1.530     6 C    1.351    13 H    0.959
     6   6 C    3.900 --     5 C    1.351     7 C    1.333    14 H    0.958
     7   6 C    3.974 --     8 C    1.528     6 C    1.333    15 H    0.960
     8   6 C    3.975 --     7 C    1.528     3 C    1.264    16 H    0.957
     9   1 H    0.983 --     1 C    0.966
    10   1 H    0.984 --     1 C    0.926
    11   1 H    0.984 --     1 C    0.925
    12   1 H    0.985 --     4 C    0.955
    13   1 H    0.987 --     5 C    0.959
    14   1 H    0.986 --     6 C    0.958
    15   1 H    0.988 --     7 C    0.960
    16   1 H    0.990 --     8 C    0.957
 ---------------------------------------------------------------------------

Topologies differ in total number of bonds
Writing topology from bond orders to xtbtopo.mol

molecular dipole:
                 x           y           z       tot (Debye)
 q only:       -0.094      -0.208       0.169
   full:       -0.141      -0.298       0.139       0.908
molecular quadrupole (traceless):
                xx          xy          yy          xz          yz          zz
 q only:       16.019       1.715      -4.034       4.765       2.570     -11.985
  q+dip:       16.239       1.132      -2.815       4.862       3.167     -13.424
   full:       15.089       1.762      -4.273       4.421       2.141     -10.816


           -------------------------------------------------
          | TOTAL ENERGY              -22.627771559102 Eh   |
          | GRADIENT NORM               0.082182112530 Eh/α |
          | HOMO-LUMO GAP               4.450082222248 eV   |
           -------------------------------------------------

------------------------------------------------------------------------
 * finished run on 2026/09/27 at 14:01:45.943     
------------------------------------------------------------------------
 total:
 * wall-time:     0 d,  0 h,  0 min,  0.045 sec
 *  cpu-time:     0 d,  0 h,  0 min,  0.031 sec
 * ratio c/w:     0.692 speedup
 SCF:
 * wall-time:     0 d,  0 h,  0 min,  0.017 sec
 *  cpu-time:     0 d,  0 h,  0 min,  0.016 sec
 * ratio c/w:     0.911 speedup

