%chk=indoline_radical_cation.chk
%nprocshared=16
%mem=32GB
#p opt freq uB3LYP/def2SVP empiricaldispersion=gd3bj scrf=(smd,solvent=acetonitrile)

indoline radical cation [M]+. optimization in MeCN (Anodic SET Intermediate)

1 2
C        2.246133     -0.870806      0.112376
C        2.400245      0.514009     -0.059948
C        1.282249      1.344067     -0.179254
C        0.026806      0.766302     -0.145945
C       -0.123205     -0.605043      0.044095
C        0.972923     -1.440937      0.174365
C       -1.568382     -0.933596      0.153555
C       -2.201778      0.388797     -0.310392
N       -1.202860      1.475210     -0.202956
H        3.126524     -1.501650      0.208188
H        3.397418      0.945039     -0.098671
H        1.396644      2.414433     -0.310466
H        0.851246     -2.507472      0.330860
H       -1.866089     -1.768557     -0.486621
H       -1.830481     -1.148120      1.194754
H       -2.505810      0.306808     -1.361888
H       -3.100420      0.627156      0.268936
H       -1.301162      1.994361      0.669013

--Link1--
%chk=indoline_radical_cation.chk
%nprocshared=16
%mem=32GB
#p uM062X/def2TZVP scrf=(smd,solvent=acetonitrile) geom=check guess=read

Single point energy refinement with larger basis set

1 2

