      -----------------------------------------------------------      
     |                   =====================                   |     
     |                           x T B                           |     
     |                   =====================                   |     
     |                         S. Grimme                         |     
     |          Mulliken Center for Theoretical Chemistry        |     
     |                    University of Bonn                     |     
      -----------------------------------------------------------      

   * xtb version 6.7.1 (edcfbbe) compiled by 'VssAdministrator@runnervm171ch' on 2026-06-10

   xtb is free software: you can redistribute it and/or modify it under
   the terms of the GNU Lesser General Public License as published by
   the Free Software Foundation, either version 3 of the License, or
   (at your option) any later version.
   
   xtb is distributed in the hope that it will be useful,
   but WITHOUT ANY WARRANTY; without even the implied warranty of
   MERCHANTABILITY or FITNESS FOR A PARTICULAR PURPOSE.  See the
   GNU Lesser General Public License for more details.
   
   Cite this work as:
   * C. Bannwarth, E. Caldeweyher, S. Ehlert, A. Hansen, P. Pracht,
     J. Seibert, S. Spicher, S. Grimme, WIREs Comput. Mol. Sci., 2020, 11,
     e01493. DOI: 10.1002/wcms.1493
   
   for GFN2-xTB:
   * C. Bannwarth, S. Ehlert and S. Grimme., J. Chem. Theory Comput., 2019,
     15, 1652-1671. DOI: 10.1021/acs.jctc.8b01176
   for GFN1-xTB:
   * S. Grimme, C. Bannwarth, P. Shushkov, J. Chem. Theory Comput., 2017,
     13, 1989-2009. DOI: 10.1021/acs.jctc.7b00118
   for GFN0-xTB:
   * P. Pracht, E. Caldeweyher, S. Ehlert, S. Grimme, ChemRxiv, 2019, preprint.
     DOI: 10.26434/chemrxiv.8326202.v1
   for GFN-FF:
   * S. Spicher and S. Grimme, Angew. Chem. Int. Ed., 2020, 59, 15665-15673.
     DOI: 10.1002/anie.202004239
   
   for ALPB and GBSA implicit solvation:
   * S. Ehlert, M. Stahn, S. Spicher, S. Grimme, J. Chem. Theory Comput.,
     2021, 17, 4250-4261. DOI: 10.1021/acs.jctc.1c00471
   
   for ddCOSMO and CPCM-X implicit solvation:
   * M. Stahn, S. Ehlert, S. Grimme, J. Phys. Chem. A,
     2023, XX, XXXX-XXXX. DOI: 10.1021/acs.jpca.3c04382
   
   for DFT-D4:
   * E. Caldeweyher, C. Bannwarth and S. Grimme, J. Chem. Phys., 2017,
     147, 034112. DOI: 10.1063/1.4993215
   * E. Caldeweyher, S. Ehlert, A. Hansen, H. Neugebauer, S. Spicher,
     C. Bannwarth and S. Grimme, J. Chem. Phys., 2019, 150, 154122.
     DOI: 10.1063/1.5090222
   * E. Caldeweyher, J.-M. Mewes, S. Ehlert and S. Grimme, Phys. Chem. Chem. Phys.
     2020, 22, 8499-8512. DOI: 10.1039/D0CP00502A
   
   for sTDA-xTB:
   * S. Grimme and C. Bannwarth, J. Chem. Phys., 2016, 145, 054103.
     DOI: 10.1063/1.4959605
   
   in the mass-spec context:
   * V. Asgeirsson, C. Bauer and S. Grimme, Chem. Sci., 2017, 8, 4879.
     DOI: 10.1039/c7sc00601b
   * J. Koopman and S. Grimme, ACS Omega 2019, 4, 12, 15120-15133.
     DOI: 10.1021/acsomega.9b02011
   
   for metadynamics refer to:
   * S. Grimme, J. Chem. Theory Comput., 2019, 155, 2847-2862
     DOI: 10.1021/acs.jctc.9b00143
   
   for SPH calculations refer to:
   * S. Spicher and S. Grimme, J. Chem. Theory Comput., 2021, 17, 1701-1714
     DOI: 10.1021/acs.jctc.0c01306
   
   for ONIOM refer to:
   * C. Plett, A. Katbashev, S. Ehlert, S. Grimme, M. Bursch,
     Phys. Chem. Chem. Phys., 2023, 25, 17860-17868. DOI: 10.1039/D3CP02178E
   
   for DIPRO refer to:
   * J. Kohn, N. Gildemeister, S. Grimme, D. Fazzi, A. Hansen,
     J. Chem. Phys., 2023, just accepted.
   
   for PTB refer to:
   * S. Grimme, M. Mueller, A. Hansen, J. Chem. Phys., 2023, 158, 124111.
     DOI: 10.1063/5.0137838
   
   with help from (in alphabetical order)
   P. Atkinson, C. Bannwarth, F. Bohle, G. Brandenburg, E. Caldeweyher
   M. Checinski, S. Dohm, S. Ehlert, S. Ehrlich, I. Gerasimov, C. Hölzer
   A. Katbashev, J. Kohn, J. Koopman, C. Lavigne, S. Lehtola, F. März, M. Müller,
   F. Musil, H. Neugebauer, J. Pisarek, C. Plett, P. Pracht, F. Pultar,
   J. Seibert, P. Shushkov, S. Spicher, M. Stahn, M. Steiner, T. Strunk,
   J. Stückrath, T. Rose, and J. Unsleber
   
 * started run on 2026/09/27 at 14:01:44.679     
   ID    Z sym.   atoms
    1    6 C      1-6
    2    1 H      7-12

           -------------------------------------------------
          |                Calculation Setup                |
           -------------------------------------------------

          program call               : xtb input.xyz --gfn 2 --chrg 0 --uhf 0 --scc --json --parallel 1 --norestart
          coordinate file            : input.xyz
          omp threads                :                     1


           -------------------------------------------------
          |                 G F N 2 - x T B                 |
           -------------------------------------------------

        Reference                      10.1021/acs.jctc.8b01176
      * Hamiltonian:
        H0-scaling (s, p, d)           1.850000    2.230000    2.230000
        zeta-weighting                 0.500000
      * Dispersion:
        s8                             2.700000
        a1                             0.520000
        a2                             5.000000
        s9                             5.000000
      * Repulsion:
        kExp                           1.500000    1.000000
        rExp                           1.000000
      * Coulomb:
        alpha                          2.000000
        third order                    shell-resolved
        anisotropic                    true
        a3                             3.000000
        a5                             4.000000
        cn-shift                       1.200000
        cn-exp                         4.000000
        max-rad                        5.000000


          ...................................................
          :                      SETUP                      :
          :.................................................:
          :  # basis functions                  30          :
          :  # atomic orbitals                  30          :
          :  # shells                           18          :
          :  # electrons                        30          :
          :  max. iterations                   250          :
          :  Hamiltonian                  GFN2-xTB          :
          :  restarted?                      false          :
          :  GBSA solvation                  false          :
          :  PC potential                    false          :
          :  electronic temp.          300.0000000     K    :
          :  accuracy                    1.0000000          :
          :  -> integral cutoff          0.2500000E+02      :
          :  -> integral neglect         0.1000000E-07      :
          :  -> SCF convergence          0.1000000E-05 Eh   :
          :  -> wf. convergence          0.1000000E-03 e    :
          :  Broyden damping             0.4000000          :
          :  net charge                          0          :
          :  unpaired electrons                  0          :
          ...................................................

 iter      E             dE          RMSdq      gap      omega  full diag
   1    -16.1796879 -0.161797E+02  0.483E+00    4.95       0.0  T
   2    -16.1950347 -0.153468E-01  0.289E+00    4.94       1.0  T
   3    -16.1954284 -0.393650E-03  0.500E-01    4.93       1.0  T
   4    -16.1957369 -0.308507E-03  0.499E-02    4.93       1.0  T
   5    -16.1957369 -0.261090E-07  0.640E-03    4.93       4.5  T
   6    -16.1957369 -0.637324E-08  0.780E-04    4.93      37.0  T
   7    -16.1957369 -0.907505E-10  0.380E-04    4.93      76.0  T

   *** convergence criteria satisfied after 7 iterations ***

         #    Occupation            Energy/Eh            Energy/eV
      -------------------------------------------------------------
         1        2.0000           -0.6415126             -17.4564
       ...           ...                  ...                  ...
         9        2.0000           -0.4763244             -12.9614
        10        2.0000           -0.4763096             -12.9610
        11        2.0000           -0.4746073             -12.9147
        12        2.0000           -0.4214268             -11.4676
        13        2.0000           -0.4214172             -11.4673
        14        2.0000           -0.4024482             -10.9512
        15        2.0000           -0.4024386             -10.9509 (HOMO)
        16                         -0.2213138              -6.0223 (LUMO)
        17                         -0.2213048              -6.0220
        18                         -0.0902243              -2.4551
        19                          0.1178629               3.2072
        20                          0.1371174               3.7312
       ...                                ...                  ...
        30                          0.6727175              18.3056
      -------------------------------------------------------------
                  HL-Gap            0.1811248 Eh            4.9287 eV
             Fermi-level           -0.3118762 Eh           -8.4866 eV

 SCC (total)                   0 d,  0 h,  0 min,  0.014 sec
 SCC setup                      ...        0 min,  0.000 sec (  2.264%)
 Dispersion                     ...        0 min,  0.000 sec (  1.476%)
 classical contributions        ...        0 min,  0.000 sec (  0.277%)
 integral evaluation            ...        0 min,  0.001 sec (  7.412%)
 iterations                     ...        0 min,  0.009 sec ( 65.352%)
 molecular gradient             ...        0 min,  0.003 sec ( 20.640%)
 printout                       ...        0 min,  0.000 sec (  2.388%)

         :::::::::::::::::::::::::::::::::::::::::::::::::::::
         ::                     SUMMARY                     ::
         :::::::::::::::::::::::::::::::::::::::::::::::::::::
         :: total energy             -15.879638924240 Eh    ::
         :: gradient norm              0.001075420019 Eh/a0 ::
         :: HOMO-LUMO gap              4.928655496909 eV    ::
         ::.................................................::
         :: SCC energy               -16.195730143990 Eh    ::
         :: -> isotropic ES            0.000790938716 Eh    ::
         :: -> anisotropic ES          0.002524948370 Eh    ::
         :: -> anisotropic XC          0.012414377748 Eh    ::
         :: -> dispersion             -0.008018046848 Eh    ::
         :: repulsion energy           0.316091219750 Eh    ::
         :: add. restraining           0.000000000000 Eh    ::
         :: total charge               0.000000000000 e     ::
         :::::::::::::::::::::::::::::::::::::::::::::::::::::

           -------------------------------------------------
          |                Property Printout                |
           -------------------------------------------------

    * Orbital Energies and Occupations

         #    Occupation            Energy/Eh            Energy/eV
      -------------------------------------------------------------
         1        2.0000           -0.6415126             -17.4564
       ...           ...                  ...                  ...
         3        2.0000           -0.6113835             -16.6366
         4        2.0000           -0.5689278             -15.4813
         5        2.0000           -0.5689224             -15.4812
         6        2.0000           -0.5311014             -14.4520
         7        2.0000           -0.4950067             -13.4698
         8        2.0000           -0.4893472             -13.3158
         9        2.0000           -0.4763244             -12.9614
        10        2.0000           -0.4763096             -12.9610
        11        2.0000           -0.4746073             -12.9147
        12        2.0000           -0.4214268             -11.4676
        13        2.0000           -0.4214172             -11.4673
        14        2.0000           -0.4024482             -10.9512
        15        2.0000           -0.4024386             -10.9509 (HOMO)
        16                         -0.2213138              -6.0223 (LUMO)
        17                         -0.2213048              -6.0220
        18                         -0.0902243              -2.4551
        19                          0.1178629               3.2072
        20                          0.1371174               3.7312
        21                          0.1732413               4.7141
        22                          0.1732750               4.7151
        23                          0.2019791               5.4961
        24                          0.2020228               5.4973
        25                          0.4123966              11.2219
        26                          0.4125129              11.2250
       ...                                ...                  ...
        30                          0.6727175              18.3056
      -------------------------------------------------------------
                  HL-Gap            0.1811248 Eh            4.9287 eV
             Fermi-level           -0.3118762 Eh           -8.4866 eV

     #   Z          covCN         q      C6AA      α(0)
     1   6 C        2.920    -0.029    28.719     8.788
     2   6 C        2.920    -0.029    28.718     8.788
     3   6 C        2.920    -0.029    28.718     8.788
     4   6 C        2.920    -0.029    28.719     8.788
     5   6 C        2.920    -0.029    28.718     8.788
     6   6 C        2.920    -0.029    28.718     8.788
     7   1 H        0.926     0.029     2.604     2.524
     8   1 H        0.926     0.029     2.604     2.524
     9   1 H        0.926     0.029     2.604     2.524
    10   1 H        0.926     0.029     2.604     2.524
    11   1 H        0.926     0.029     2.604     2.524
    12   1 H        0.926     0.029     2.604     2.524

 Mol. C6AA /au·bohr⁶  :       1749.450490
 Mol. C8AA /au·bohr⁸  :      42661.531104
 Mol. α(0) /au        :         67.869359


Wiberg/Mayer (AO) data.
largest (>0.10) Wiberg bond orders for each atom

 ---------------------------------------------------------------------------
     #   Z sym  total        # sym  WBO       # sym  WBO       # sym  WBO
 ---------------------------------------------------------------------------
     1   6 C    3.993 --     6 C    1.441     2 C    1.441     7 H    0.972
                             4 C    0.114
     2   6 C    3.993 --     3 C    1.441     1 C    1.441     8 H    0.972
                             5 C    0.114
     3   6 C    3.993 --     2 C    1.441     4 C    1.441     9 H    0.972
                             6 C    0.114
     4   6 C    3.993 --     3 C    1.441     5 C    1.441    10 H    0.972
                             1 C    0.114
     5   6 C    3.993 --     6 C    1.441     4 C    1.441    11 H    0.972
                             2 C    0.114
     6   6 C    3.993 --     5 C    1.441     1 C    1.441    12 H    0.972
                             3 C    0.114
     7   1 H    0.999 --     1 C    0.972
     8   1 H    0.999 --     2 C    0.972
     9   1 H    0.999 --     3 C    0.972
    10   1 H    0.999 --     4 C    0.972
    11   1 H    0.999 --     5 C    0.972
    12   1 H    0.999 --     6 C    0.972
 ---------------------------------------------------------------------------

Topologies differ in total number of bonds
Writing topology from bond orders to xtbtopo.mol

molecular dipole:
                 x           y           z       tot (Debye)
 q only:        0.000      -0.000      -0.000
   full:       -0.000      -0.000      -0.000       0.000
molecular quadrupole (traceless):
                xx          xy          yy          xz          yz          zz
 q only:        0.641       0.000       0.640       0.005      -0.045      -1.280
  q+dip:        2.673      -0.001       2.670       0.020      -0.187      -5.343
   full:        1.337      -0.000       1.335       0.010      -0.094      -2.672


           -------------------------------------------------
          | TOTAL ENERGY              -15.879638924240 Eh   |
          | GRADIENT NORM               0.001075420019 Eh/α |
          | HOMO-LUMO GAP               4.928655496909 eV   |
           -------------------------------------------------

------------------------------------------------------------------------
 * finished run on 2026/09/27 at 14:01:44.722     
------------------------------------------------------------------------
 total:
 * wall-time:     0 d,  0 h,  0 min,  0.042 sec
 *  cpu-time:     0 d,  0 h,  0 min,  0.000 sec
 * ratio c/w:     0.000 speedup
 SCF:
 * wall-time:     0 d,  0 h,  0 min,  0.014 sec
 *  cpu-time:     0 d,  0 h,  0 min,  0.000 sec
 * ratio c/w:     0.000 speedup

