27
 energy: -40.650656410037 gnorm: 0.000245668845 xtb: 6.7.1 (edcfbbe)
C           -4.58748357971419        0.30235151610607       -0.37697791301809
C           -3.65144114980425        1.12079882428923       -0.99004008707220
C           -2.30329041774437        0.90818990016043       -0.78262425557889
C           -1.85611883844629       -0.12767806787652        0.04189206259363
C           -2.80893915363154       -0.94288101269714        0.65268069872293
C           -4.15936806244692       -0.72781021622779        0.44329592579160
C           -0.40628854188158       -0.30834602157344        0.22607781896292
C            0.13517063919576       -1.33621711796668        1.04099565943111
C            1.48969805265836       -1.44926542588443        1.17191212270677
C            2.33601395802536       -0.54528621757780        0.49604378151524
C            3.74140652400854       -0.58267705693489        0.57030643509097
C            4.49280760573367        0.33124156937410       -0.11613661899858
C            3.87213679830672        1.31631251401537       -0.90281352830901
C            2.50984569102917        1.37957282298442       -0.99648656486922
C            1.70544044083035        0.45098739863810       -0.29938950610987
N            0.37017589173961        0.54139728314672       -0.41145928979640
H           -5.64318339001108        0.46592058399663       -0.53693285247835
H           -3.97650151291643        1.92658211860565       -1.63205835571935
H           -1.56494855007244        1.53744414080767       -1.25347056383273
H           -2.51224428598534       -1.75447359834051        1.29889886678285
H           -4.88249156739972       -1.37024111304098        0.92510035533432
H           -0.51270150905615       -2.02643188069259        1.55637276300403
H            1.92614787308597       -2.22396861463398        1.78837031368323
H            4.21156916559461       -1.34398968076820        1.17733809530042
H            5.57107200403573        0.30201544601574       -0.05851884519078
H            4.48619898390290        2.02737847501486       -1.43620589460149
H            2.01731593096354        2.12907243105998       -1.59617362334505
