33

C     -2.296096    1.810819    1.876588
C     -2.538106    1.831325    0.391115
O     -2.658614    2.879033   -0.235486
N     -2.598854    0.584733   -0.187389
C     -2.679694    0.426101   -1.629593
C     -1.314955    0.531193   -2.320888
C     -0.394013   -0.594648   -1.950830
C     -0.317349   -1.827856   -2.569438
N      0.631642   -2.575016   -1.925281
C      1.176800   -1.857818   -0.886702
C      0.564648   -0.605805   -0.886520
C      0.964411    0.333262    0.086519
C      1.943631   -0.002658    1.030929
O      2.227363    0.994266    1.926060
C      3.264889    0.741677    2.864619
C      2.529744   -1.267150    1.003304
C      2.159993   -2.217071    0.041250
H     -2.387581    0.801745    2.287933
H     -1.289710    2.185999    2.080006
H     -3.035351    2.449640    2.367513
H     -2.233011   -0.201531    0.336365
H     -3.137560   -0.551365   -1.816889
H     -3.350090    1.195439   -2.028751
H     -0.840718    1.490853   -2.083171
H     -1.468090    0.519520   -3.407307
H     -0.857792   -2.235670   -3.413578
H      0.896558   -3.518631   -2.171617
H      0.518878    1.323993    0.104301
H      2.997832   -0.082507    3.534164
H      3.387986    1.640418    3.476627
H      4.217575    0.549599    2.359965
H      3.290063   -1.554643    1.722568
H      2.625570   -3.197245    0.023616
