      -----------------------------------------------------------      
     |                   =====================                   |     
     |                           x T B                           |     
     |                   =====================                   |     
     |                         S. Grimme                         |     
     |          Mulliken Center for Theoretical Chemistry        |     
     |                    University of Bonn                     |     
      -----------------------------------------------------------      

   * xtb version 6.7.1 (edcfbbe) compiled by 'VssAdministrator@runnervm171ch' on 2026-06-10

   xtb is free software: you can redistribute it and/or modify it under
   the terms of the GNU Lesser General Public License as published by
   the Free Software Foundation, either version 3 of the License, or
   (at your option) any later version.
   
   xtb is distributed in the hope that it will be useful,
   but WITHOUT ANY WARRANTY; without even the implied warranty of
   MERCHANTABILITY or FITNESS FOR A PARTICULAR PURPOSE.  See the
   GNU Lesser General Public License for more details.
   
   Cite this work as:
   * C. Bannwarth, E. Caldeweyher, S. Ehlert, A. Hansen, P. Pracht,
     J. Seibert, S. Spicher, S. Grimme, WIREs Comput. Mol. Sci., 2020, 11,
     e01493. DOI: 10.1002/wcms.1493
   
   for GFN2-xTB:
   * C. Bannwarth, S. Ehlert and S. Grimme., J. Chem. Theory Comput., 2019,
     15, 1652-1671. DOI: 10.1021/acs.jctc.8b01176
   for GFN1-xTB:
   * S. Grimme, C. Bannwarth, P. Shushkov, J. Chem. Theory Comput., 2017,
     13, 1989-2009. DOI: 10.1021/acs.jctc.7b00118
   for GFN0-xTB:
   * P. Pracht, E. Caldeweyher, S. Ehlert, S. Grimme, ChemRxiv, 2019, preprint.
     DOI: 10.26434/chemrxiv.8326202.v1
   for GFN-FF:
   * S. Spicher and S. Grimme, Angew. Chem. Int. Ed., 2020, 59, 15665-15673.
     DOI: 10.1002/anie.202004239
   
   for ALPB and GBSA implicit solvation:
   * S. Ehlert, M. Stahn, S. Spicher, S. Grimme, J. Chem. Theory Comput.,
     2021, 17, 4250-4261. DOI: 10.1021/acs.jctc.1c00471
   
   for ddCOSMO and CPCM-X implicit solvation:
   * M. Stahn, S. Ehlert, S. Grimme, J. Phys. Chem. A,
     2023, XX, XXXX-XXXX. DOI: 10.1021/acs.jpca.3c04382
   
   for DFT-D4:
   * E. Caldeweyher, C. Bannwarth and S. Grimme, J. Chem. Phys., 2017,
     147, 034112. DOI: 10.1063/1.4993215
   * E. Caldeweyher, S. Ehlert, A. Hansen, H. Neugebauer, S. Spicher,
     C. Bannwarth and S. Grimme, J. Chem. Phys., 2019, 150, 154122.
     DOI: 10.1063/1.5090222
   * E. Caldeweyher, J.-M. Mewes, S. Ehlert and S. Grimme, Phys. Chem. Chem. Phys.
     2020, 22, 8499-8512. DOI: 10.1039/D0CP00502A
   
   for sTDA-xTB:
   * S. Grimme and C. Bannwarth, J. Chem. Phys., 2016, 145, 054103.
     DOI: 10.1063/1.4959605
   
   in the mass-spec context:
   * V. Asgeirsson, C. Bauer and S. Grimme, Chem. Sci., 2017, 8, 4879.
     DOI: 10.1039/c7sc00601b
   * J. Koopman and S. Grimme, ACS Omega 2019, 4, 12, 15120-15133.
     DOI: 10.1021/acsomega.9b02011
   
   for metadynamics refer to:
   * S. Grimme, J. Chem. Theory Comput., 2019, 155, 2847-2862
     DOI: 10.1021/acs.jctc.9b00143
   
   for SPH calculations refer to:
   * S. Spicher and S. Grimme, J. Chem. Theory Comput., 2021, 17, 1701-1714
     DOI: 10.1021/acs.jctc.0c01306
   
   for ONIOM refer to:
   * C. Plett, A. Katbashev, S. Ehlert, S. Grimme, M. Bursch,
     Phys. Chem. Chem. Phys., 2023, 25, 17860-17868. DOI: 10.1039/D3CP02178E
   
   for DIPRO refer to:
   * J. Kohn, N. Gildemeister, S. Grimme, D. Fazzi, A. Hansen,
     J. Chem. Phys., 2023, just accepted.
   
   for PTB refer to:
   * S. Grimme, M. Mueller, A. Hansen, J. Chem. Phys., 2023, 158, 124111.
     DOI: 10.1063/5.0137838
   
   with help from (in alphabetical order)
   P. Atkinson, C. Bannwarth, F. Bohle, G. Brandenburg, E. Caldeweyher
   M. Checinski, S. Dohm, S. Ehlert, S. Ehrlich, I. Gerasimov, C. Hölzer
   A. Katbashev, J. Kohn, J. Koopman, C. Lavigne, S. Lehtola, F. März, M. Müller,
   F. Musil, H. Neugebauer, J. Pisarek, C. Plett, P. Pracht, F. Pultar,
   J. Seibert, P. Shushkov, S. Spicher, M. Stahn, M. Steiner, T. Strunk,
   J. Stückrath, T. Rose, and J. Unsleber
   
 * started run on 2026/09/27 at 21:41:06.365     
   ID    Z sym.   atoms
    1    6 C      1, 2, 5-8, 10-13, 15-17
    2    8 O      3, 14
    3    7 N      4, 9
    4    1 H      18-33

           -------------------------------------------------
          |                Calculation Setup                |
           -------------------------------------------------

          program call               : xtb input.xyz --gfn 2 --alpb acetonitrile --chrg 0 --uhf 0 --opt tight --json --parallel 1 --norestart
          coordinate file            : input.xyz
          omp threads                :                     1


           -------------------------------------------------
          |                 G F N 2 - x T B                 |
           -------------------------------------------------

        Reference                      10.1021/acs.jctc.8b01176
      * Hamiltonian:
        H0-scaling (s, p, d)           1.850000    2.230000    2.230000
        zeta-weighting                 0.500000
      * Dispersion:
        s8                             2.700000
        a1                             0.520000
        a2                             5.000000
        s9                             5.000000
      * Repulsion:
        kExp                           1.500000    1.000000
        rExp                           1.000000
      * Coulomb:
        alpha                          2.000000
        third order                    shell-resolved
        anisotropic                    true
        a3                             3.000000
        a5                             4.000000
        cn-shift                       1.200000
        cn-exp                         4.000000
        max-rad                        5.000000

      * Solvation model:               ALPB
        Solvent                        acetonitrile
        Parameter file                 internal GFN2-xTB/ALPB
        Dielectric constant                3.7500E+01
        Reference state                gsolv [1 M gas/solution]
        Free energy shift                  5.1987E-03 Eh       3.2622E+00 kcal/mol
        Temperature                        2.9815E+02 K
        Density                            7.8600E-01 kg/L
        Solvent mass                       4.1050E+01 g/mol
        Interaction kernel             P16
        Born radius scaling (c1)           1.7214E+00
        Born radii integrator          GBOBC
        Born offset                        0.0000E+00 a0       0.0000E+00 AA
        H-bond correction              true
        Ion screening                  false
        Surface tension                    1.0000E-05 Eh       1.5569E+01 dyn/cm
        Grid points                               230 per atom

          ...................................................
          :                      SETUP                      :
          :.................................................:
          :  # basis functions                  84          :
          :  # atomic orbitals                  84          :
          :  # shells                           50          :
          :  # electrons                        90          :
          :  max. iterations                   250          :
          :  Hamiltonian                  GFN2-xTB          :
          :  restarted?                      false          :
          :  GBSA solvation                   true          :
          :  PC potential                    false          :
          :  electronic temp.          300.0000000     K    :
          :  accuracy                    1.0000000          :
          :  -> integral cutoff          0.2500000E+02      :
          :  -> integral neglect         0.1000000E-07      :
          :  -> SCF convergence          0.1000000E-05 Eh   :
          :  -> wf. convergence          0.1000000E-03 e    :
          :  Broyden damping             0.4000000          :
          :  net charge                          0          :
          :  unpaired electrons                  0          :
          ...................................................

 iter      E             dE          RMSdq      gap      omega  full diag
   1    -50.5884817 -0.505885E+02  0.390E+00    2.93       0.0  T
   2    -50.6943115 -0.105830E+00  0.230E+00    3.20       1.0  T
   3    -50.6959558 -0.164426E-02  0.123E+00    3.26       1.0  T
   4    -50.6983483 -0.239254E-02  0.601E-01    3.13       1.0  T
   5    -50.7079420 -0.959366E-02  0.102E-01    3.19       1.0  T
   6    -50.7080009 -0.589341E-04  0.579E-02    3.19       1.0  T
   7    -50.7080299 -0.290369E-04  0.244E-02    3.19       1.0  T
   8    -50.7080320 -0.210912E-05  0.775E-03    3.19       2.2  T
   9    -50.7080331 -0.102180E-05  0.351E-03    3.19       5.0  T
  10    -50.7080331 -0.494223E-07  0.139E-03    3.19      12.5  T
  11    -50.7080331 -0.782837E-08  0.632E-04    3.19      27.5  T
  12    -50.7080331 -0.387550E-08  0.253E-04    3.19      68.7  T

   *** convergence criteria satisfied after 12 iterations ***

         #    Occupation            Energy/Eh            Energy/eV
      -------------------------------------------------------------
         1        2.0000           -0.7058213             -19.2064
       ...           ...                  ...                  ...
        39        2.0000           -0.4277140             -11.6387
        40        2.0000           -0.4128516             -11.2343
        41        2.0000           -0.4102305             -11.1629
        42        2.0000           -0.3978401             -10.8258
        43        2.0000           -0.3884859             -10.5712
        44        2.0000           -0.3696079             -10.0575
        45        2.0000           -0.3515169              -9.5653 (HOMO)
        46                         -0.2343887              -6.3780 (LUMO)
        47                         -0.2079061              -5.6574
        48                         -0.1866591              -5.0793
        49                         -0.1587880              -4.3208
        50                         -0.0707214              -1.9244
       ...                                ...                  ...
        84                          0.7032194              19.1356
      -------------------------------------------------------------
                  HL-Gap            0.1171282 Eh            3.1872 eV
             Fermi-level           -0.2929528 Eh           -7.9717 eV

 SCC (total)                   0 d,  0 h,  0 min,  0.054 sec
 SCC setup                      ...        0 min,  0.003 sec (  4.643%)
 Dispersion                     ...        0 min,  0.001 sec (  1.633%)
 classical contributions        ...        0 min,  0.000 sec (  0.384%)
 integral evaluation            ...        0 min,  0.005 sec (  9.502%)
 iterations                     ...        0 min,  0.031 sec ( 58.180%)
 molecular gradient             ...        0 min,  0.013 sec ( 24.513%)
 printout                       ...        0 min,  0.001 sec (  1.100%)

         :::::::::::::::::::::::::::::::::::::::::::::::::::::
         ::                     SUMMARY                     ::
         :::::::::::::::::::::::::::::::::::::::::::::::::::::
         :: total energy             -50.023008944587 Eh    ::
         :: total w/o Gsasa/hb       -50.004342589791 Eh    ::
         :: gradient norm              0.065550359466 Eh/a0 ::
         :: HOMO-LUMO gap              3.187219501265 eV    ::
         ::.................................................::
         :: SCC energy               -50.707648307502 Eh    ::
         :: -> isotropic ES            0.071106863740 Eh    ::
         :: -> anisotropic ES          0.008350019192 Eh    ::
         :: -> anisotropic XC          0.018745778313 Eh    ::
         :: -> dispersion             -0.031818679205 Eh    ::
         :: -> Gsolv                  -0.027010426346 Eh    ::
         ::    -> Gelec               -0.008344071550 Eh    ::
         ::    -> Gsasa               -0.022068306961 Eh    ::
         ::    -> Ghb                 -0.001796702587 Eh    ::
         ::    -> Gshift               0.005198654751 Eh    ::
         :: repulsion energy           0.684639362915 Eh    ::
         :: add. restraining           0.000000000000 Eh    ::
         :: total charge              -0.000000000000 e     ::
         :::::::::::::::::::::::::::::::::::::::::::::::::::::

      ----------------------------------------------------------- 
     |                   =====================                   |
     |                        A N C O P T                        |
     |                   =====================                   |
     |               Approximate Normal Coordinate               |
     |                Rational Function Optimizer                |
      ----------------------------------------------------------- 
      ----------------------------------------------------------- 
     |                   =====================                   |
     |                        A N C O P T                        |
     |                   =====================                   |
     |               Approximate Normal Coordinate               |
     |                Rational Function Optimizer                |
      ----------------------------------------------------------- 

          ...................................................
          :                      SETUP                      :
          :.................................................:
          :   optimization level             tight          :
          :   max. optcycles                   200          :
          :   ANC micro-cycles                  20          :
          :   degrees of freedom                93          :
          :.................................................:
          :   RF solver                   davidson          :
          :   write xtbopt.log                true          :
          :   linear?                        false          :
          :   energy convergence         0.1000000E-05 Eh   :
          :   grad. convergence          0.8000000E-03 Eh/α :
          :   maxmium RF displ.          1.0000000          :
          :   Hlow (freq-cutoff)         0.1000000E-01      :
          :   Hmax (freq-cutoff)         5.0000000          :
          :   S6 in model hess.         20.0000000          :
          ...................................................

generating ANC from exact Hessian ...
Using Lindh-Hessian (1995)
 Shifting diagonal of input Hessian by    9.5795013604700798E-003
 Lowest  eigenvalues of input Hessian
    0.000000    0.000000    0.000000    0.000000    0.000000    0.000000
    0.010000    0.010095    0.011404    0.011569    0.012251    0.013338
    0.014724    0.016281    0.017346    0.020312    0.021231    0.022893
 Highest eigenvalues
    1.885925    1.952232    1.988733    2.076695    2.167423    2.240095


........................................................................
.............................. CYCLE    1 ..............................
........................................................................

 iter      E             dE          RMSdq      gap      omega  full diag
   1    -50.7080331 -0.507080E+02  0.127E-04    3.19       0.0  T
   2    -50.7080331 -0.100535E-09  0.836E-05    3.19     208.2  T
   3    -50.7080331 -0.689440E-10  0.568E-05    3.19     306.5  T
     SCC iter.                  ...        0 min,  0.005 sec
     gradient                   ...        0 min,  0.013 sec
 * total energy  :   -50.0230089 Eh     change       -0.7123333E-09 Eh
   gradient norm :     0.0655508 Eh/α   predicted     0.0000000E+00 (-100.00%)
   displ. norm   :     0.1897089 α      lambda       -0.6473485E-02
   maximum displ.:     0.0739334 α      in ANC's #27, #49, #18, ...

........................................................................
.............................. CYCLE    2 ..............................
........................................................................

 iter      E             dE          RMSdq      gap      omega  full diag
   1    -50.7338416 -0.507338E+02  0.163E-01    3.31       0.0  T
   2    -50.7338945 -0.529836E-04  0.957E-02    3.32       1.0  T
   3    -50.7338885  0.604439E-05  0.321E-02    3.32       1.0  T
   4    -50.7338983 -0.980572E-05  0.883E-03    3.32       2.0  T
   5    -50.7339003 -0.200228E-05  0.292E-03    3.32       6.0  T
   6    -50.7339004 -0.539657E-07  0.165E-03    3.32      10.6  T
   7    -50.7339004 -0.240267E-07  0.484E-04    3.32      35.9  T
   8    -50.7339004 -0.185020E-08  0.237E-04    3.32      73.3  T
     SCC iter.                  ...        0 min,  0.010 sec
     gradient                   ...        0 min,  0.012 sec
 * total energy  :   -50.0272138 Eh     change       -0.4204874E-02 Eh
   gradient norm :     0.0248119 Eh/α   predicted    -0.3353701E-02 ( -20.24%)
   displ. norm   :     0.1321929 α      lambda       -0.1294677E-02
   maximum displ.:     0.0487503 α      in ANC's #6, #27, #10, ...

........................................................................
.............................. CYCLE    3 ..............................
........................................................................

 iter      E             dE          RMSdq      gap      omega  full diag
   1    -50.7445072 -0.507445E+02  0.905E-02    3.38       0.0  T
   2    -50.7445311 -0.239170E-04  0.523E-02    3.38       1.0  T
   3    -50.7445300  0.114046E-05  0.208E-02    3.38       1.0  T
   4    -50.7445320 -0.203768E-05  0.634E-03    3.38       2.7  T
   5    -50.7445331 -0.114580E-05  0.159E-03    3.38      11.0  T
   6    -50.7445332 -0.147859E-07  0.896E-04    3.38      19.4  T
   7    -50.7445332 -0.633859E-08  0.256E-04    3.38      68.0  T
     SCC iter.                  ...        0 min,  0.010 sec
     gradient                   ...        0 min,  0.013 sec
 * total energy  :   -50.0279334 Eh     change       -0.7195982E-03 Eh
   gradient norm :     0.0055888 Eh/α   predicted    -0.6588235E-03 (  -8.45%)
   displ. norm   :     0.0905165 α      lambda       -0.1912275E-03
   maximum displ.:     0.0531394 α      in ANC's #6, #12, #15, ...

........................................................................
.............................. CYCLE    4 ..............................
........................................................................

 iter      E             dE          RMSdq      gap      omega  full diag
   1    -50.7443188 -0.507443E+02  0.431E-02    3.38       0.0  T
   2    -50.7443242 -0.540999E-05  0.243E-02    3.38       1.0  T
   3    -50.7443243 -0.101788E-06  0.865E-03    3.38       2.0  T
   4    -50.7443245 -0.151525E-06  0.132E-03    3.38      13.2  T
   5    -50.7443245 -0.293710E-07  0.653E-04    3.38      26.7  T
   6    -50.7443245 -0.171275E-08  0.274E-04    3.38      63.5  T
     SCC iter.                  ...        0 min,  0.008 sec
     gradient                   ...        0 min,  0.013 sec
 * total energy  :   -50.0280812 Eh     change       -0.1478099E-03 Eh
   gradient norm :     0.0044426 Eh/α   predicted    -0.9639584E-04 ( -34.78%)
   displ. norm   :     0.2111286 α      lambda       -0.2870892E-03
   maximum displ.:     0.1230021 α      in ANC's #6, #12, #15, ...

........................................................................
.............................. CYCLE    5 ..............................
........................................................................

 iter      E             dE          RMSdq      gap      omega  full diag
   1    -50.7425475 -0.507425E+02  0.832E-02    3.38       0.0  T
   2    -50.7425565 -0.897634E-05  0.479E-02    3.38       1.0  T
   3    -50.7425563  0.243429E-06  0.116E-02    3.38       1.5  T
   4    -50.7425572 -0.956358E-06  0.324E-03    3.38       5.4  T
   5    -50.7425575 -0.244160E-06  0.156E-03    3.38      11.1  T
   6    -50.7425575 -0.145477E-07  0.728E-04    3.38      23.9  T
   7    -50.7425575 -0.573849E-08  0.250E-04    3.38      69.5  T
     SCC iter.                  ...        0 min,  0.010 sec
     gradient                   ...        0 min,  0.015 sec
 * total energy  :   -50.0282757 Eh     change       -0.1945194E-03 Eh
   gradient norm :     0.0088099 Eh/α   predicted    -0.1499487E-03 ( -22.91%)
   displ. norm   :     0.1969726 α      lambda       -0.1888038E-03
   maximum displ.:     0.1092913 α      in ANC's #6, #12, #15, ...

........................................................................
.............................. CYCLE    6 ..............................
........................................................................

 iter      E             dE          RMSdq      gap      omega  full diag
   1    -50.7413772 -0.507414E+02  0.679E-02    3.38       0.0  T
   2    -50.7413792 -0.205023E-05  0.397E-02    3.38       1.0  T
   3    -50.7413782  0.106248E-05  0.745E-03    3.38       2.3  T
   4    -50.7413797 -0.150422E-05  0.262E-03    3.38       6.7  T
   5    -50.7413798 -0.154232E-06  0.120E-03    3.38      14.5  T
   6    -50.7413798 -0.314119E-08  0.501E-04    3.38      34.8  T
   7    -50.7413798 -0.300884E-08  0.160E-04    3.38     108.5  T
     SCC iter.                  ...        0 min,  0.014 sec
     gradient                   ...        0 min,  0.014 sec
 * total energy  :   -50.0284240 Eh     change       -0.1482336E-03 Eh
   gradient norm :     0.0104873 Eh/α   predicted    -0.9806522E-04 ( -33.84%)
   displ. norm   :     0.3117103 α      lambda       -0.3295247E-03
   maximum displ.:     0.1585255 α      in ANC's #12, #6, #15, ...

........................................................................
.............................. CYCLE    7 ..............................
........................................................................

 iter      E             dE          RMSdq      gap      omega  full diag
   1    -50.7404727 -0.507405E+02  0.992E-02    3.37       0.0  T
   2    -50.7404744 -0.172785E-05  0.584E-02    3.37       1.0  T
   3    -50.7404703  0.410155E-05  0.119E-02    3.37       1.5  T
   4    -50.7404757 -0.534346E-05  0.256E-03    3.37       6.8  T
   5    -50.7404757 -0.115182E-07  0.146E-03    3.37      11.9  T
   6    -50.7404757 -0.174814E-07  0.380E-04    3.37      45.8  T
   7    -50.7404757 -0.157833E-08  0.168E-04    3.37     103.7  T
     SCC iter.                  ...        0 min,  0.010 sec
     gradient                   ...        0 min,  0.013 sec
 * total energy  :   -50.0286621 Eh     change       -0.2381399E-03 Eh
   gradient norm :     0.0097261 Eh/α   predicted    -0.1807728E-03 ( -24.09%)
   displ. norm   :     0.2591595 α      lambda       -0.3177637E-03
   maximum displ.:     0.1397994 α      in ANC's #12, #6, #2, ...

........................................................................
.............................. CYCLE    8 ..............................
........................................................................

 iter      E             dE          RMSdq      gap      omega  full diag
   1    -50.7418300 -0.507418E+02  0.797E-02    3.37       0.0  T
   2    -50.7418321 -0.211794E-05  0.470E-02    3.37       1.0  T
   3    -50.7418291  0.294999E-05  0.107E-02    3.37       1.6  T
   4    -50.7418328 -0.369270E-05  0.244E-03    3.37       7.1  T
   5    -50.7418329 -0.977396E-07  0.122E-03    3.37      14.2  T
   6    -50.7418329 -0.530771E-08  0.535E-04    3.37      32.5  T
   7    -50.7418329 -0.219418E-08  0.177E-04    3.37      98.2  T
     SCC iter.                  ...        0 min,  0.010 sec
     gradient                   ...        0 min,  0.014 sec
 * total energy  :   -50.0289006 Eh     change       -0.2385087E-03 Eh
   gradient norm :     0.0060151 Eh/α   predicted    -0.1695554E-03 ( -28.91%)
   displ. norm   :     0.4303487 α      lambda       -0.3484469E-03
   maximum displ.:     0.2347424 α      in ANC's #12, #6, #15, ...

........................................................................
.............................. CYCLE    9 ..............................
........................................................................

 iter      E             dE          RMSdq      gap      omega  full diag
   1    -50.7402422 -0.507402E+02  0.144E-01    3.37       0.0  T
   2    -50.7402553 -0.130104E-04  0.844E-02    3.37       1.0  T
   3    -50.7402505  0.470928E-05  0.183E-02    3.37       1.0  T
   4    -50.7402573 -0.679605E-05  0.507E-03    3.37       3.4  T
   5    -50.7402579 -0.569803E-06  0.236E-03    3.37       7.4  T
   6    -50.7402579 -0.375000E-07  0.113E-03    3.37      15.4  T
   7    -50.7402580 -0.862609E-08  0.389E-04    3.37      44.8  T
   8    -50.7402580 -0.395751E-09  0.160E-04    3.37     108.7  T
     SCC iter.                  ...        0 min,  0.014 sec
     gradient                   ...        0 min,  0.013 sec
 * total energy  :   -50.0290593 Eh     change       -0.1586222E-03 Eh
   gradient norm :     0.0146807 Eh/α   predicted    -0.2065006E-03 (  30.18%)
   displ. norm   :     0.1665305 α      lambda       -0.4439083E-03
   maximum displ.:     0.0878452 α      in ANC's #12, #2, #15, ...

........................................................................
.............................. CYCLE   10 ..............................
........................................................................

 iter      E             dE          RMSdq      gap      omega  full diag
   1    -50.7459336 -0.507459E+02  0.662E-02    3.38       0.0  T
   2    -50.7459461 -0.125249E-04  0.393E-02    3.38       1.0  T
   3    -50.7459458  0.342187E-06  0.143E-02    3.38       1.2  T
   4    -50.7459476 -0.183150E-05  0.333E-03    3.38       5.2  T
   5    -50.7459478 -0.156176E-06  0.180E-03    3.38       9.7  T
   6    -50.7459478 -0.397523E-07  0.805E-04    3.38      21.6  T
   7    -50.7459478 -0.600973E-08  0.292E-04    3.38      59.6  T
     SCC iter.                  ...        0 min,  0.009 sec
     gradient                   ...        0 min,  0.013 sec
 * total energy  :   -50.0292339 Eh     change       -0.1746088E-03 Eh
   gradient norm :     0.0084849 Eh/α   predicted    -0.2281116E-03 (  30.64%)
   displ. norm   :     0.1841242 α      lambda       -0.1462871E-03
   maximum displ.:     0.1113673 α      in ANC's #12, #15, #2, ...

........................................................................
.............................. CYCLE   11 ..............................
........................................................................

 iter      E             dE          RMSdq      gap      omega  full diag
   1    -50.7439057 -0.507439E+02  0.616E-02    3.38       0.0  T
   2    -50.7439078 -0.216060E-05  0.361E-02    3.38       1.0  T
   3    -50.7439060  0.185618E-05  0.962E-03    3.38       1.8  T
   4    -50.7439084 -0.246326E-05  0.230E-03    3.38       7.6  T
   5    -50.7439085 -0.104791E-06  0.114E-03    3.38      15.3  T
   6    -50.7439085 -0.544362E-08  0.438E-04    3.38      39.8  T
   7    -50.7439085 -0.100849E-08  0.141E-04    3.38     123.7  T
     SCC iter.                  ...        0 min,  0.009 sec
     gradient                   ...        0 min,  0.015 sec
 * total energy  :   -50.0293385 Eh     change       -0.1046846E-03 Eh
   gradient norm :     0.0054618 Eh/α   predicted    -0.7562372E-04 ( -27.76%)
   displ. norm   :     0.1843752 α      lambda       -0.1378836E-03
   maximum displ.:     0.1117709 α      in ANC's #12, #15, #2, ...

........................................................................
.............................. CYCLE   12 ..............................
........................................................................

 iter      E             dE          RMSdq      gap      omega  full diag
   1    -50.7429256 -0.507429E+02  0.639E-02    3.38       0.0  T
   2    -50.7429276 -0.202707E-05  0.375E-02    3.38       1.0  T
   3    -50.7429255  0.207823E-05  0.946E-03    3.38       1.8  T
   4    -50.7429282 -0.262298E-05  0.225E-03    3.38       7.7  T
   5    -50.7429283 -0.104344E-06  0.104E-03    3.38      16.8  T
   6    -50.7429283 -0.596700E-08  0.460E-04    3.38      37.8  T
   7    -50.7429283 -0.101961E-08  0.169E-04    3.38     102.7  T
     SCC iter.                  ...        0 min,  0.009 sec
     gradient                   ...        0 min,  0.015 sec
 * total energy  :   -50.0294238 Eh     change       -0.8525485E-04 Eh
   gradient norm :     0.0067950 Eh/α   predicted    -0.7129936E-04 ( -16.37%)
   displ. norm   :     0.1233414 α      lambda       -0.8990735E-04
   maximum displ.:     0.0762357 α      in ANC's #12, #15, #2, ...

........................................................................
.............................. CYCLE   13 ..............................
........................................................................

 iter      E             dE          RMSdq      gap      omega  full diag
   1    -50.7433487 -0.507433E+02  0.377E-02    3.38       0.0  T
   2    -50.7433502 -0.149834E-05  0.219E-02    3.38       1.0  T
   3    -50.7433491  0.107841E-05  0.718E-03    3.38       2.4  T
   4    -50.7433504 -0.129165E-05  0.210E-03    3.38       8.3  T
   5    -50.7433505 -0.127065E-06  0.628E-04    3.38      27.7  T
   6    -50.7433505 -0.798828E-09  0.311E-04    3.38      55.9  T
     SCC iter.                  ...        0 min,  0.008 sec
     gradient                   ...        0 min,  0.014 sec
 * total energy  :   -50.0294913 Eh     change       -0.6754875E-04 Eh
   gradient norm :     0.0049589 Eh/α   predicted    -0.4563821E-04 ( -32.44%)
   displ. norm   :     0.2850541 α      lambda       -0.1298153E-03
   maximum displ.:     0.1805869 α      in ANC's #12, #15, #2, ...

........................................................................
.............................. CYCLE   14 ..............................
........................................................................

 iter      E             dE          RMSdq      gap      omega  full diag
   1    -50.7420260 -0.507420E+02  0.912E-02    3.38       0.0  T
   2    -50.7420279 -0.193469E-05  0.534E-02    3.38       1.0  T
   3    -50.7420223  0.558008E-05  0.137E-02    3.38       1.3  T
   4    -50.7420290 -0.673958E-05  0.233E-03    3.38       7.5  T
   5    -50.7420291 -0.443570E-07  0.132E-03    3.38      13.1  T
   6    -50.7420291 -0.321349E-08  0.471E-04    3.38      37.0  T
   7    -50.7420291 -0.327572E-08  0.136E-04    3.38     127.7  T
     SCC iter.                  ...        0 min,  0.009 sec
     gradient                   ...        0 min,  0.014 sec
 * total energy  :   -50.0295639 Eh     change       -0.7258152E-04 Eh
   gradient norm :     0.0070075 Eh/α   predicted    -0.7018438E-04 (  -3.30%)
   displ. norm   :     0.1508179 α      lambda       -0.1443355E-03
   maximum displ.:     0.0815489 α      in ANC's #6, #9, #3, ...

........................................................................
.............................. CYCLE   15 ..............................
........................................................................

 iter      E             dE          RMSdq      gap      omega  full diag
   1    -50.7456457 -0.507456E+02  0.437E-02    3.38       0.0  T
   2    -50.7456487 -0.301475E-05  0.256E-02    3.38       1.0  T
   3    -50.7456481  0.630375E-06  0.803E-03    3.38       2.2  T
   4    -50.7456491 -0.102511E-05  0.209E-03    3.38       8.3  T
   5    -50.7456492 -0.896225E-07  0.102E-03    3.38      17.1  T
   6    -50.7456492 -0.936230E-08  0.479E-04    3.38      36.4  T
   7    -50.7456492 -0.142241E-08  0.139E-04    3.38     125.0  T
     SCC iter.                  ...        0 min,  0.009 sec
     gradient                   ...        0 min,  0.013 sec
 * total energy  :   -50.0296118 Eh     change       -0.4786389E-04 Eh
   gradient norm :     0.0054241 Eh/α   predicted    -0.7381047E-04 (  54.21%)
   displ. norm   :     0.1869599 α      lambda       -0.1070921E-03
   maximum displ.:     0.1202849 α      in ANC's #12, #15, #2, ...

........................................................................
.............................. CYCLE   16 ..............................
........................................................................

 iter      E             dE          RMSdq      gap      omega  full diag
   1    -50.7439301 -0.507439E+02  0.678E-02    3.38       0.0  T
   2    -50.7439333 -0.315590E-05  0.395E-02    3.38       1.0  T
   3    -50.7439315  0.173613E-05  0.998E-03    3.38       1.7  T
   4    -50.7439337 -0.222240E-05  0.286E-03    3.38       6.1  T
   5    -50.7439340 -0.213788E-06  0.116E-03    3.38      15.0  T
   6    -50.7439340 -0.392066E-08  0.569E-04    3.38      30.6  T
   7    -50.7439340 -0.236103E-08  0.133E-04    3.38     130.6  T
     SCC iter.                  ...        0 min,  0.009 sec
     gradient                   ...        0 min,  0.013 sec
 * total energy  :   -50.0296773 Eh     change       -0.6545903E-04 Eh
   gradient norm :     0.0036196 Eh/α   predicted    -0.5541922E-04 ( -15.34%)
   displ. norm   :     0.0692703 α      lambda       -0.4722399E-04
   maximum displ.:     0.0349025 α      in ANC's #3, #12, #8, ...

........................................................................
.............................. CYCLE   17 ..............................
........................................................................

 iter      E             dE          RMSdq      gap      omega  full diag
   1    -50.7442614 -0.507443E+02  0.290E-02    3.38       0.0  T
   2    -50.7442617 -0.397110E-06  0.170E-02    3.38       1.0  T
   3    -50.7442617  0.969397E-07  0.298E-03    3.38       5.8  T
   4    -50.7442618 -0.181737E-06  0.860E-04    3.38      20.2  T
   5    -50.7442618 -0.650990E-08  0.449E-04    3.38      38.7  T
     SCC iter.                  ...        0 min,  0.007 sec
     gradient                   ...        0 min,  0.013 sec
 * total energy  :   -50.0297092 Eh     change       -0.3195637E-04 Eh
   gradient norm :     0.0038608 Eh/α   predicted    -0.2372871E-04 ( -25.75%)
   displ. norm   :     0.1263772 α      lambda       -0.5406973E-04
   maximum displ.:     0.0532363 α      in ANC's #6, #8, #3, ...

........................................................................
.............................. CYCLE   18 ..............................
........................................................................

 iter      E             dE          RMSdq      gap      omega  full diag
   1    -50.7445682 -0.507446E+02  0.400E-02    3.38       0.0  T
   2    -50.7445685 -0.313154E-06  0.237E-02    3.38       1.0  T
   3    -50.7445683  0.157354E-06  0.310E-03    3.38       5.6  T
   4    -50.7445686 -0.267583E-06  0.895E-04    3.38      19.5  T
   5    -50.7445686 -0.271415E-08  0.507E-04    3.38      34.3  T
     SCC iter.                  ...        0 min,  0.007 sec
     gradient                   ...        0 min,  0.013 sec
 * total energy  :   -50.0297446 Eh     change       -0.3540879E-04 Eh
   gradient norm :     0.0040855 Eh/α   predicted    -0.2747089E-04 ( -22.42%)
   displ. norm   :     0.1081872 α      lambda       -0.3838331E-04
   maximum displ.:     0.0486872 α      in ANC's #6, #5, #3, ...

........................................................................
.............................. CYCLE   19 ..............................
........................................................................

 iter      E             dE          RMSdq      gap      omega  full diag
   1    -50.7450064 -0.507450E+02  0.303E-02    3.38       0.0  T
   2    -50.7450066 -0.191303E-06  0.180E-02    3.38       1.0  T
   3    -50.7450065  0.490203E-07  0.209E-03    3.38       8.3  T
   4    -50.7450066 -0.110828E-06  0.756E-04    3.38      23.0  T
   5    -50.7450066 -0.167483E-08  0.451E-04    3.38      38.6  T
     SCC iter.                  ...        0 min,  0.007 sec
     gradient                   ...        0 min,  0.013 sec
 * total energy  :   -50.0297703 Eh     change       -0.2566488E-04 Eh
   gradient norm :     0.0028755 Eh/α   predicted    -0.1941675E-04 ( -24.35%)
   displ. norm   :     0.1294493 α      lambda       -0.2644940E-04
   maximum displ.:     0.0548841 α      in ANC's #12, #6, #5, ...

........................................................................
.............................. CYCLE   20 ..............................
........................................................................

 iter      E             dE          RMSdq      gap      omega  full diag
   1    -50.7440357 -0.507440E+02  0.427E-02    3.38       0.0  T
   2    -50.7440362 -0.485551E-06  0.252E-02    3.38       1.0  T
   3    -50.7440361  0.163663E-07  0.250E-03    3.38       7.0  T
   4    -50.7440363 -0.115551E-06  0.105E-03    3.38      16.6  T
   5    -50.7440363 -0.107171E-07  0.631E-04    3.38      27.6  T
   6    -50.7440363 -0.187293E-08  0.225E-04    3.38      77.3  T
     SCC iter.                  ...        0 min,  0.008 sec
     gradient                   ...        0 min,  0.014 sec
 * total energy  :   -50.0297828 Eh     change       -0.1255792E-04 Eh
   gradient norm :     0.0030503 Eh/α   predicted    -0.1345566E-04 (   7.15%)
   displ. norm   :     0.0690618 α      lambda       -0.2463189E-04
   maximum displ.:     0.0422851 α      in ANC's #2, #1, #12, ...
 * RMSD in coord.:     0.4624558 α      energy gain  -0.6773896E-02 Eh

generating ANC from exact Hessian ...
Using Lindh-Hessian (1995)
 Shifting diagonal of input Hessian by    9.5423662320759869E-003
 Lowest  eigenvalues of input Hessian
    0.000000    0.000000    0.000000    0.000000    0.000000    0.000000
    0.010000    0.010117    0.011394    0.011760    0.012645    0.013523
    0.014876    0.016226    0.018050    0.019882    0.021938    0.025046
 Highest eigenvalues
    1.936214    2.000635    2.044222    2.105208    2.218548    2.314691


........................................................................
.............................. CYCLE   21 ..............................
........................................................................

 iter      E             dE          RMSdq      gap      omega  full diag
   1    -50.7455395 -0.507455E+02  0.181E-02    3.38       0.0  T
   2    -50.7455405 -0.102079E-05  0.103E-02    3.38       1.7  T
   3    -50.7455404  0.381688E-07  0.424E-03    3.38       4.1  T
   4    -50.7455406 -0.112755E-06  0.114E-03    3.38      15.3  T
   5    -50.7455406 -0.339764E-07  0.422E-04    3.38      41.2  T
   6    -50.7455406 -0.143401E-08  0.216E-04    3.38      80.7  T
     SCC iter.                  ...        0 min,  0.008 sec
     gradient                   ...        0 min,  0.014 sec
 * total energy  :   -50.0297892 Eh     change       -0.6340650E-05 Eh
   gradient norm :     0.0020842 Eh/α   predicted     0.0000000E+00 (-100.00%)
   displ. norm   :     0.0158879 α      lambda       -0.6511656E-05
   maximum displ.:     0.0086614 α      in ANC's #2, #3, #6, ...

........................................................................
.............................. CYCLE   22 ..............................
........................................................................

 iter      E             dE          RMSdq      gap      omega  full diag
   1    -50.7450099 -0.507450E+02  0.581E-03    3.38       0.0  T
   2    -50.7450100 -0.963822E-07  0.335E-03    3.38       5.2  T
   3    -50.7450100  0.155364E-08  0.130E-03    3.38      13.4  T
   4    -50.7450100 -0.991419E-08  0.237E-04    3.38      73.5  T
   5    -50.7450100 -0.998448E-09  0.113E-04    3.38     153.9  T
     SCC iter.                  ...        0 min,  0.009 sec
     gradient                   ...        0 min,  0.017 sec
 * total energy  :   -50.0297957 Eh     change       -0.6505871E-05 Eh
   gradient norm :     0.0007737 Eh/α   predicted    -0.4433917E-05 ( -31.85%)
   displ. norm   :     0.0472048 α      lambda       -0.7962075E-05
   maximum displ.:     0.0279992 α      in ANC's #2, #3, #12, ...

........................................................................
.............................. CYCLE   23 ..............................
........................................................................

 iter      E             dE          RMSdq      gap      omega  full diag
   1    -50.7443186 -0.507443E+02  0.140E-02    3.38       0.0  T
   2    -50.7443187 -0.192066E-06  0.823E-03    3.38       2.1  T
   3    -50.7443187  0.567620E-07  0.224E-03    3.38       7.8  T
   4    -50.7443188 -0.790402E-07  0.608E-04    3.38      28.6  T
   5    -50.7443188 -0.825833E-08  0.246E-04    3.38      70.8  T
     SCC iter.                  ...        0 min,  0.008 sec
     gradient                   ...        0 min,  0.014 sec
 * total energy  :   -50.0298023 Eh     change       -0.6598877E-05 Eh
   gradient norm :     0.0015554 Eh/α   predicted    -0.3985217E-05 ( -39.61%)
   displ. norm   :     0.0355008 α      lambda       -0.4128863E-05
   maximum displ.:     0.0222629 α      in ANC's #2, #12, #3, ...

........................................................................
.............................. CYCLE   24 ..............................
........................................................................

 iter      E             dE          RMSdq      gap      omega  full diag
   1    -50.7445028 -0.507445E+02  0.985E-03    3.38       0.0  T
   2    -50.7445028 -0.183070E-07  0.587E-03    3.38       3.0  T
   3    -50.7445028  0.644211E-07  0.155E-03    3.38      11.2  T
   4    -50.7445028 -0.757379E-07  0.252E-04    3.38      69.1  T
   5    -50.7445028 -0.425153E-09  0.133E-04    3.38     130.7  T
     SCC iter.                  ...        0 min,  0.009 sec
     gradient                   ...        0 min,  0.015 sec
 * total energy  :   -50.0298078 Eh     change       -0.5475451E-05 Eh
   gradient norm :     0.0012616 Eh/α   predicted    -0.2119334E-05 ( -61.29%)
   displ. norm   :     0.0909160 α      lambda       -0.9696959E-05
   maximum displ.:     0.0574455 α      in ANC's #2, #12, #3, ...

........................................................................
.............................. CYCLE   25 ..............................
........................................................................

 iter      E             dE          RMSdq      gap      omega  full diag
   1    -50.7448826 -0.507449E+02  0.245E-02    3.38       0.0  T
   2    -50.7448827 -0.115318E-06  0.146E-02    3.38       1.2  T
   3    -50.7448824  0.311187E-06  0.342E-03    3.38       5.1  T
   4    -50.7448828 -0.372704E-06  0.653E-04    3.38      26.7  T
   5    -50.7448828 -0.318530E-08  0.336E-04    3.38      51.8  T
     SCC iter.                  ...        0 min,  0.007 sec
     gradient                   ...        0 min,  0.014 sec
 * total energy  :   -50.0298174 Eh     change       -0.9665283E-05 Eh
   gradient norm :     0.0006064 Eh/α   predicted    -0.4867478E-05 ( -49.64%)
   displ. norm   :     0.0660324 α      lambda       -0.4083069E-05
   maximum displ.:     0.0447693 α      in ANC's #2, #12, #3, ...

........................................................................
.............................. CYCLE   26 ..............................
........................................................................

 iter      E             dE          RMSdq      gap      omega  full diag
   1    -50.7449524 -0.507450E+02  0.176E-02    3.38       0.0  T
   2    -50.7449524 -0.323960E-07  0.105E-02    3.38       1.7  T
   3    -50.7449524  0.712477E-07  0.165E-03    3.38      10.6  T
   4    -50.7449525 -0.912497E-07  0.385E-04    3.38      45.2  T
   5    -50.7449525 -0.293007E-09  0.187E-04    3.38      92.9  T
     SCC iter.                  ...        0 min,  0.007 sec
     gradient                   ...        0 min,  0.012 sec
 * total energy  :   -50.0298217 Eh     change       -0.4277632E-05 Eh
   gradient norm :     0.0005811 Eh/α   predicted    -0.2047947E-05 ( -52.12%)
   displ. norm   :     0.0534692 α      lambda       -0.3027975E-05
   maximum displ.:     0.0381908 α      in ANC's #2, #12, #5, ...

........................................................................
.............................. CYCLE   27 ..............................
........................................................................

 iter      E             dE          RMSdq      gap      omega  full diag
   1    -50.7449791 -0.507450E+02  0.134E-02    3.38       0.0  T
   2    -50.7449791 -0.310424E-07  0.792E-03    3.38       2.2  T
   3    -50.7449791  0.410812E-08  0.763E-04    3.38      22.8  T
   4    -50.7449791 -0.141792E-07  0.333E-04    3.38      52.3  T
     SCC iter.                  ...        0 min,  0.006 sec
     gradient                   ...        0 min,  0.015 sec
 * total energy  :   -50.0298254 Eh     change       -0.3741487E-05 Eh
   gradient norm :     0.0004497 Eh/α   predicted    -0.1519269E-05 ( -59.39%)
   displ. norm   :     0.0694080 α      lambda       -0.4190522E-05
   maximum displ.:     0.0496404 α      in ANC's #2, #12, #1, ...

........................................................................
.............................. CYCLE   28 ..............................
........................................................................

 iter      E             dE          RMSdq      gap      omega  full diag
   1    -50.7449282 -0.507449E+02  0.170E-02    3.38       0.0  T
   2    -50.7449283 -0.683717E-07  0.100E-02    3.38       1.7  T
   3    -50.7449283  0.115046E-07  0.112E-03    3.38      15.5  T
   4    -50.7449283 -0.287792E-07  0.446E-04    3.38      39.0  T
   5    -50.7449283 -0.250394E-08  0.235E-04    3.38      74.2  T
     SCC iter.                  ...        0 min,  0.008 sec
     gradient                   ...        0 min,  0.015 sec
 * total energy  :   -50.0298303 Eh     change       -0.4887195E-05 Eh
   gradient norm :     0.0003571 Eh/α   predicted    -0.2100138E-05 ( -57.03%)
   displ. norm   :     0.0724105 α      lambda       -0.3421046E-05
   maximum displ.:     0.0508488 α      in ANC's #2, #12, #1, ...

........................................................................
.............................. CYCLE   29 ..............................
........................................................................

 iter      E             dE          RMSdq      gap      omega  full diag
   1    -50.7448296 -0.507448E+02  0.167E-02    3.38       0.0  T
   2    -50.7448296 -0.411385E-07  0.982E-03    3.38       1.8  T
   3    -50.7448296  0.502025E-08  0.953E-04    3.38      18.3  T
   4    -50.7448296 -0.222049E-07  0.394E-04    3.38      44.2  T
     SCC iter.                  ...        0 min,  0.006 sec
     gradient                   ...        0 min,  0.015 sec
 * total energy  :   -50.0298342 Eh     change       -0.3844963E-05 Eh
   gradient norm :     0.0004831 Eh/α   predicted    -0.1717142E-05 ( -55.34%)
   displ. norm   :     0.0608090 α      lambda       -0.2593972E-05
   maximum displ.:     0.0412378 α      in ANC's #2, #12, #6, ...

........................................................................
.............................. CYCLE   30 ..............................
........................................................................

 iter      E             dE          RMSdq      gap      omega  full diag
   1    -50.7448042 -0.507448E+02  0.129E-02    3.38       0.0  T
   2    -50.7448042 -0.191404E-07  0.761E-03    3.38       2.3  T
   3    -50.7448042  0.148951E-09  0.690E-04    3.38      25.2  T
   4    -50.7448042 -0.104518E-07  0.304E-04    3.38      57.2  T
     SCC iter.                  ...        0 min,  0.007 sec
     gradient                   ...        0 min,  0.015 sec
 * total energy  :   -50.0298373 Eh     change       -0.3110762E-05 Eh
   gradient norm :     0.0005168 Eh/α   predicted    -0.1299781E-05 ( -58.22%)
   displ. norm   :     0.0719742 α      lambda       -0.3052450E-05
   maximum displ.:     0.0464122 α      in ANC's #2, #6, #12, ...

........................................................................
.............................. CYCLE   31 ..............................
........................................................................

 iter      E             dE          RMSdq      gap      omega  full diag
   1    -50.7448072 -0.507448E+02  0.139E-02    3.38       0.0  T
   2    -50.7448072 -0.265635E-07  0.817E-03    3.38       2.1  T
   3    -50.7448072  0.220347E-07  0.113E-03    3.38      15.4  T
   4    -50.7448072 -0.354056E-07  0.361E-04    3.38      48.3  T
   5    -50.7448072 -0.683734E-09  0.175E-04    3.38      99.3  T
     SCC iter.                  ...        0 min,  0.006 sec
     gradient                   ...        0 min,  0.012 sec
 * total energy  :   -50.0298407 Eh     change       -0.3378486E-05 Eh
   gradient norm :     0.0003885 Eh/α   predicted    -0.1531263E-05 ( -54.68%)
   displ. norm   :     0.0511827 α      lambda       -0.1650664E-05
   maximum displ.:     0.0336753 α      in ANC's #2, #6, #12, ...

........................................................................
.............................. CYCLE   32 ..............................
........................................................................

 iter      E             dE          RMSdq      gap      omega  full diag
   1    -50.7448237 -0.507448E+02  0.896E-03    3.38       0.0  T
   2    -50.7448238 -0.191040E-07  0.525E-03    3.38       3.3  T
   3    -50.7448237  0.364429E-07  0.124E-03    3.38      14.0  T
   4    -50.7448238 -0.454306E-07  0.268E-04    3.38      64.9  T
   5    -50.7448238 -0.635005E-09  0.138E-04    3.38     126.0  T
     SCC iter.                  ...        0 min,  0.007 sec
     gradient                   ...        0 min,  0.014 sec
 * total energy  :   -50.0298423 Eh     change       -0.1638546E-05 Eh
   gradient norm :     0.0002169 Eh/α   predicted    -0.8275145E-06 ( -49.50%)
   displ. norm   :     0.0191638 α      lambda       -0.4753135E-06
   maximum displ.:     0.0134460 α      in ANC's #2, #6, #12, ...

........................................................................
.............................. CYCLE   33 ..............................
........................................................................

 iter      E             dE          RMSdq      gap      omega  full diag
   1    -50.7448955 -0.507449E+02  0.329E-03    3.38       0.0  T
   2    -50.7448956 -0.732528E-08  0.194E-03    3.38       9.0  T
   3    -50.7448955  0.129125E-07  0.781E-04    3.38      22.3  T
   4    -50.7448956 -0.158777E-07  0.139E-04    3.38     125.2  T
     SCC iter.                  ...        0 min,  0.006 sec
     gradient                   ...        0 min,  0.013 sec
 * total energy  :   -50.0298428 Eh     change       -0.4801689E-06 Eh
   gradient norm :     0.0001040 Eh/α   predicted    -0.2380287E-06 ( -50.43%)
   displ. norm   :     0.0097523 α      lambda       -0.2006451E-06
   maximum displ.:     0.0066860 α      in ANC's #2, #3, #5, ...

   *** GEOMETRY OPTIMIZATION CONVERGED AFTER 33 ITERATIONS ***

------------------------------------------------------------------------
 total energy gain   :        -0.0068338 Eh       -4.2883 kcal/mol
 total RMSD          :         0.4845560 a0        0.2564 Å
 total power (kW/mol):        -0.5437045 (step)  -17.8875 (real)
------------------------------------------------------------------------

 ANCopt (total)                0 d,  0 h,  0 min,  1.003 sec
 optimizer setup                ...        0 min,  0.001 sec (  0.073%)
 model hessian                  ...        0 min,  0.022 sec (  2.147%)
 ANC generation                 ...        0 min,  0.002 sec (  0.232%)
 coordinate transformation      ...        0 min,  0.000 sec (  0.044%)
 single point calculation       ...        0 min,  0.953 sec ( 95.011%)
 optimization log               ...        0 min,  0.007 sec (  0.697%)
 hessian update                 ...        0 min,  0.001 sec (  0.106%)
 rational function              ...        0 min,  0.013 sec (  1.304%)

================
 final structure:
================
33
 xtb: 6.7.1 (edcfbbe)
C           -2.27956565157002        1.76538939913713        1.93590376956502
C           -2.76150883752040        1.75884377989025        0.49881905535740
O           -3.49728266466841        2.61701404889036        0.03404418821468
N           -2.32082461885387        0.70246829768284       -0.20878124280336
C           -2.55459202791200        0.51856938777213       -1.62214760004760
C           -1.23874210646360        0.52202558900749       -2.41820727159269
C           -0.34850111826743       -0.60641024197849       -2.00968336757053
C           -0.29211115493377       -1.85479523051911       -2.56201389105257
N            0.60567549811478       -2.63538399063099       -1.88908249281519
C            1.15573922428769       -1.90165907872312       -0.87716656308046
C            0.57698831442302       -0.60835804198203       -0.91946964559061
C            0.97239222896423        0.35096238035474        0.00976509877275
C            1.91613400926801        0.01256510337367        0.96662428833643
O            2.23873556588600        1.01318197400050        1.85239601755944
C            3.20444284853222        0.75688181867671        2.84512878500996
C            2.47340109220443       -1.27446391474591        0.99884586910921
C            2.10222231756722       -2.23508682640997        0.07966909296267
H           -2.62663728414275        0.87011989597719        2.44632321049744
H           -1.19248066652096        1.78412165032915        1.96355462572838
H           -2.66887884155532        2.64274197352242        2.44417042455691
H           -1.65846680517350        0.07072229510612        0.21643800249468
H           -3.07494333877876       -0.43220256274509       -1.78013418359609
H           -3.19957441108342        1.33782326343335       -1.94728322166198
H           -0.72930105644894        1.47310229706730       -2.25373544407479
H           -1.48137300217304        0.43742224773035       -3.47831650929903
H           -0.83418383371503       -2.24331476805718       -3.40289695132507
H            0.83421385783697       -3.58841048520895       -2.11332995242825
H            0.56998974426300        1.35210742633189       -0.00070490778972
H            2.88526732231254       -0.04462049458122        3.51949876383948
H            3.29659645436387        1.68468092545399        3.40787713288935
H            4.17487771549670        0.50228886362647        2.40688271047131
H            3.20838762696977       -1.52849134558994        1.74557890741789
H            2.54390259929078       -3.21983463619144        0.11143530194409

 Bond Distances (Angstroems)
 ---------------------------
C1-C2=1.5158         C1-H18=1.0874        C1-H19=1.0876        C1-H20=1.0861        C2-C1=1.5158         C2-O3=1.2222         
C2-N4=1.3457         O3-C2=1.2222         N4-C2=1.3457         N4-C5=1.4443         N4-H21=1.0093        C5-N4=1.4443         
C5-C6=1.5379         C5-H22=1.0953        C5-H23=1.0922        C6-C5=1.5379         C6-C7=1.4943         C6-H24=1.0914        
C6-H25=1.0908        C7-C6=1.4943         C7-C8=1.3663         C7-C11=1.4301        C8-C7=1.3663         C8-N9=1.3668         
C8-H26=1.0733        N9-C8=1.3668         N9-C10=1.3656        N9-H27=1.0054        C10-N9=1.3656        C10-C11=1.4175       
C10-C17=1.3866       C11-C7=1.4301        C11-C10=1.4175       C11-C12=1.3929       C12-C11=1.3929       C12-C13=1.3859       
C12-H28=1.0790       C13-C12=1.3859       C13-O14=1.3747       C13-C16=1.4029       O14-C13=1.3747       O14-C15=1.4085       
C15-O14=1.4085       C15-H29=1.0950       C15-H30=1.0890       C15-H31=1.0948       C16-C13=1.4029       C16-C17=1.3804       
C16-H32=1.0781       C17-C10=1.3866       C17-C16=1.3804       C17-H33=1.0797       H18-C1=1.0874        H19-C1=1.0876        
H20-C1=1.0861        H21-N4=1.0093        H22-C5=1.0953        H23-C5=1.0922        H24-C6=1.0914        H25-C6=1.0908        
H26-C8=1.0733        H27-N9=1.0054        H28-C12=1.0790       H29-C15=1.0950       H30-C15=1.0890       H31-C15=1.0948       
H32-C16=1.0781       H33-C17=1.0797       
 C  H  Rav=1.0871 sigma=0.0068  Rmin=1.0733  Rmax=1.0953    14
 C  C  Rav=1.4282 sigma=0.0570  Rmin=1.3663  Rmax=1.5379    11
 N  H  Rav=1.0073 sigma=0.0019  Rmin=1.0054  Rmax=1.0093     2
 N  C  Rav=1.3806 sigma=0.0377  Rmin=1.3457  Rmax=1.4443     4
 O  C  Rav=1.3351 sigma=0.0810  Rmin=1.2222  Rmax=1.4085     3

 selected bond angles (degree)
 --------------------
H18-C1-C2=109.88               H19-C1-C2=110.00               H19-C1-H18=108.74              H20-C1-C2=109.46               
H20-C1-H18=109.33              H20-C1-H19=109.42              O3-C2-C1=123.29                N4-C2-C1=113.44                
N4-C2-O3=123.26                C5-N4-C2=124.16                H21-N4-C2=119.00               H21-N4-C5=116.03               
C6-C5-N4=111.58                H22-C5-N4=109.18               H22-C5-C6=109.50               H23-C5-N4=106.94               
H23-C5-C6=110.46               H23-C5-H22=109.12              C7-C6-C5=111.50                H24-C6-C5=108.86               
H24-C6-C7=109.80               H25-C6-C5=108.21               H25-C6-C7=109.86               H25-C6-H24=108.53              
C8-C7-C6=127.16                C11-C7-C6=126.51               C11-C7-C8=106.27               N9-C8-C7=110.48                
H26-C8-C7=128.80               H26-C8-N9=120.71               C10-N9-C8=108.82               H27-N9-C8=125.51               
H27-N9-C10=125.66              C11-C10-N9=107.68              C17-C10-N9=131.08              C17-C10-C11=121.24             

 selected dihedral angles (degree)
 ---------------------------------
O3-C2-C1-H18=118.72           O3-C2-C1-H19=238.40           O3-C2-C1-H20=358.66           N4-C2-C1-H18=299.91           
N4-C2-C1-H19= 59.58           N4-C2-C1-H20=179.84           C5-N4-C2-C1=184.89            C5-N4-C2-O3=  6.07            
H21-N4-C2-C1=354.12           H21-N4-C2-O3=175.30           C6-C5-N4-C2=116.56            C6-C5-N4-H21=307.04           
H22-C5-N4-C2=237.74           H22-C5-N4-H21= 68.22          H23-C5-N4-C2=355.68           H23-C5-N4-H21=186.16          
C7-C6-C5-N4= 62.27            C7-C6-C5-H22=301.28           C7-C6-C5-H23=181.08           H24-C6-C5-N4=300.97           
H24-C6-C5-H22=179.99          H24-C6-C5-H23= 59.79          H25-C6-C5-N4=183.20           H25-C6-C5-H22= 62.21          
H25-C6-C5-H23=302.01          C8-C7-C6-C5= 91.63            C8-C7-C6-H24=212.38           C8-C7-C6-H25=331.67           
C11-C7-C6-C5=274.52           C11-C7-C6-H24= 35.27          C11-C7-C6-H25=154.56          N9-C8-C7-C6=182.46            
N9-C8-C7-C11=  0.04           H26-C8-C7-C6=  2.81           H26-C8-C7-C11=180.39          C10-N9-C8-C7=359.97           
C10-N9-C8-H26=179.65          H27-N9-C8-C7=180.93           H27-N9-C8-H26=  0.61          C11-C10-N9-C8=  0.00          
C11-C10-N9-H27=179.05         C17-C10-N9-C8=179.82          C17-C10-N9-H27=358.86         
           -------------------------------------------------
          |                Final Singlepoint                |
           -------------------------------------------------

          ...................................................
          :                      SETUP                      :
          :.................................................:
          :  # basis functions                  84          :
          :  # atomic orbitals                  84          :
          :  # shells                           50          :
          :  # electrons                        90          :
          :  max. iterations                   250          :
          :  Hamiltonian                  GFN2-xTB          :
          :  restarted?                      false          :
          :  GBSA solvation                   true          :
          :  PC potential                    false          :
          :  electronic temp.          300.0000000     K    :
          :  accuracy                    1.0000000          :
          :  -> integral cutoff          0.2500000E+02      :
          :  -> integral neglect         0.1000000E-07      :
          :  -> SCF convergence          0.1000000E-05 Eh   :
          :  -> wf. convergence          0.1000000E-03 e    :
          :  Broyden damping             0.4000000          :
          :  net charge                          0          :
          :  unpaired electrons                  0          :
          ...................................................

 iter      E             dE          RMSdq      gap      omega  full diag
   1    -50.7448956 -0.507449E+02  0.612E-05    3.38       0.0  T
   2    -50.7448956 -0.583356E-11  0.369E-05    3.38     472.1  T
   3    -50.7448956  0.390799E-11  0.190E-05    3.38     917.2  T

   *** convergence criteria satisfied after 3 iterations ***

         #    Occupation            Energy/Eh            Energy/eV
      -------------------------------------------------------------
         1        2.0000           -0.7074224             -19.2499
       ...           ...                  ...                  ...
        39        2.0000           -0.4297044             -11.6929
        40        2.0000           -0.4145109             -11.2794
        41        2.0000           -0.4139897             -11.2652
        42        2.0000           -0.3950761             -10.7506
        43        2.0000           -0.3894846             -10.5984
        44        2.0000           -0.3701074             -10.0711
        45        2.0000           -0.3556979              -9.6790 (HOMO)
        46                         -0.2316119              -6.3025 (LUMO)
        47                         -0.1995234              -5.4293
        48                         -0.1903529              -5.1798
        49                         -0.1563466              -4.2544
        50                         -0.0704136              -1.9161
       ...                                ...                  ...
        84                          0.7211078              19.6223
      -------------------------------------------------------------
                  HL-Gap            0.1240860 Eh            3.3766 eV
             Fermi-level           -0.2936549 Eh           -7.9908 eV

 SCC (total)                   0 d,  0 h,  0 min,  0.027 sec
 SCC setup                      ...        0 min,  0.001 sec (  4.444%)
 Dispersion                     ...        0 min,  0.000 sec (  1.681%)
 classical contributions        ...        0 min,  0.000 sec (  0.536%)
 integral evaluation            ...        0 min,  0.006 sec ( 23.582%)
 iterations                     ...        0 min,  0.004 sec ( 15.273%)
 molecular gradient             ...        0 min,  0.014 sec ( 52.961%)
 printout                       ...        0 min,  0.000 sec (  1.427%)

         :::::::::::::::::::::::::::::::::::::::::::::::::::::
         ::                     SUMMARY                     ::
         :::::::::::::::::::::::::::::::::::::::::::::::::::::
         :: total energy             -50.029842786604 Eh    ::
         :: total w/o Gsasa/hb       -50.011321077260 Eh    ::
         :: gradient norm              0.000105804957 Eh/a0 ::
         :: HOMO-LUMO gap              3.376552295048 eV    ::
         ::.................................................::
         :: SCC energy               -50.744546109729 Eh    ::
         :: -> isotropic ES            0.072253481545 Eh    ::
         :: -> anisotropic ES          0.006136746821 Eh    ::
         :: -> anisotropic XC          0.017451571825 Eh    ::
         :: -> dispersion             -0.031836788557 Eh    ::
         :: -> Gsolv                  -0.026994561686 Eh    ::
         ::    -> Gelec               -0.008472852342 Eh    ::
         ::    -> Gsasa               -0.022006704868 Eh    ::
         ::    -> Ghb                 -0.001713659227 Eh    ::
         ::    -> Gshift               0.005198654751 Eh    ::
         :: repulsion energy           0.714703323126 Eh    ::
         :: add. restraining           0.000000000000 Eh    ::
         :: total charge               0.000000000000 e     ::
         :::::::::::::::::::::::::::::::::::::::::::::::::::::

           -------------------------------------------------
          |                Property Printout                |
           -------------------------------------------------

    * Orbital Energies and Occupations

         #    Occupation            Energy/Eh            Energy/eV
      -------------------------------------------------------------
         1        2.0000           -0.7074224             -19.2499
       ...           ...                  ...                  ...
        33        2.0000           -0.4646356             -12.6434
        34        2.0000           -0.4632012             -12.6043
        35        2.0000           -0.4585288             -12.4772
        36        2.0000           -0.4539541             -12.3527
        37        2.0000           -0.4421822             -12.0324
        38        2.0000           -0.4346122             -11.8264
        39        2.0000           -0.4297044             -11.6929
        40        2.0000           -0.4145109             -11.2794
        41        2.0000           -0.4139897             -11.2652
        42        2.0000           -0.3950761             -10.7506
        43        2.0000           -0.3894846             -10.5984
        44        2.0000           -0.3701074             -10.0711
        45        2.0000           -0.3556979              -9.6790 (HOMO)
        46                         -0.2316119              -6.3025 (LUMO)
        47                         -0.1995234              -5.4293
        48                         -0.1903529              -5.1798
        49                         -0.1563466              -4.2544
        50                         -0.0704136              -1.9161
        51                          0.0165451               0.4502
        52                          0.0227677               0.6195
        53                          0.0362428               0.9862
        54                          0.1017264               2.7681
        55                          0.1047506               2.8504
        56                          0.1203449               3.2748
       ...                                ...                  ...
        84                          0.7211078              19.6223
      -------------------------------------------------------------
                  HL-Gap            0.1240860 Eh            3.3766 eV
             Fermi-level           -0.2936549 Eh           -7.9908 eV

     #   Z          covCN         q      C6AA      α(0)
     1   6 C        3.758    -0.150    23.458     6.905
     2   6 C        2.748     0.277    22.319     7.736
     3   8 O        0.858    -0.494    23.643     6.519
     4   7 N        2.689    -0.178    24.848     7.403
     5   6 C        3.740     0.003    20.602     6.476
     6   6 C        3.804    -0.069    21.811     6.649
     7   6 C        3.053    -0.034    28.798     8.801
     8   6 C        3.037    -0.008    28.176     8.706
     9   7 N        2.774    -0.110    23.399     7.184
    10   6 C        3.085     0.035    27.120     8.537
    11   6 C        3.115    -0.021    28.368     8.724
    12   6 C        2.913    -0.070    29.749     8.944
    13   6 C        2.860     0.127    25.217     8.231
    14   8 O        1.705    -0.299    18.971     5.881
    15   6 C        3.640     0.035    20.339     6.486
    16   6 C        2.921    -0.073    29.817     8.954
    17   6 C        2.909    -0.057    29.412     8.893
    18   1 H        0.925     0.065     2.140     2.287
    19   1 H        0.925     0.066     2.129     2.282
    20   1 H        0.925     0.066     2.135     2.285
    21   1 H        0.860     0.192     1.146     1.677
    22   1 H        0.924     0.050     2.324     2.384
    23   1 H        0.924     0.067     2.119     2.276
    24   1 H        0.924     0.048     2.344     2.394
    25   1 H        0.924     0.050     2.322     2.383
    26   1 H        0.926     0.043     2.414     2.430
    27   1 H        0.860     0.188     1.170     1.695
    28   1 H        0.926     0.035     2.514     2.480
    29   1 H        0.924     0.041     2.429     2.437
    30   1 H        0.925     0.064     2.158     2.297
    31   1 H        0.924     0.041     2.437     2.441
    32   1 H        0.926     0.035     2.517     2.481
    33   1 H        0.926     0.035     2.520     2.482

 Mol. C6AA /au·bohr⁶  :      11696.022854
 Mol. C8AA /au·bohr⁸  :     272803.002843
 Mol. α(0) /au        :        167.741708


Wiberg/Mayer (AO) data.
largest (>0.10) Wiberg bond orders for each atom

 ---------------------------------------------------------------------------
     #   Z sym  total        # sym  WBO       # sym  WBO       # sym  WBO
 ---------------------------------------------------------------------------
     1   6 C    3.993 --    20 H    0.985     2 C    0.981    18 H    0.970
                            19 H    0.969
     2   6 C    3.948 --     3 O    1.645     4 N    1.280     1 C    0.981
     3   8 O    1.954 --     2 C    1.645     4 N    0.195
     4   7 N    3.456 --     2 C    1.280     5 C    0.995    21 H    0.927
                             3 O    0.195
     5   6 C    3.967 --     4 N    0.995     6 C    0.979    23 H    0.968
                            22 H    0.968
     6   6 C    3.995 --     7 C    1.018     5 C    0.979    24 H    0.972
                            25 H    0.971
     7   6 C    3.975 --     8 C    1.575    11 C    1.205     6 C    1.018
     8   6 C    3.952 --     7 C    1.575     9 N    1.206    26 H    0.969
     9   7 N    3.542 --     8 C    1.206    10 C    1.176    27 H    0.937
    10   6 C    3.961 --    17 C    1.348    11 C    1.236     9 N    1.176
    11   6 C    3.985 --    12 C    1.339    10 C    1.236     7 C    1.205
    12   6 C    3.986 --    13 C    1.418    11 C    1.339    28 H    0.965
                            17 C    0.113
    13   6 C    3.928 --    12 C    1.418    16 C    1.324    14 O    1.034
    14   8 O    2.191 --    13 C    1.034    15 C    0.986
    15   6 C    3.946 --    14 O    0.986    30 H    0.979    31 H    0.977
                            29 H    0.977
    16   6 C    3.986 --    17 C    1.482    13 C    1.324    32 H    0.967
    17   6 C    3.989 --    16 C    1.482    10 C    1.348    33 H    0.968
                            12 C    0.113
    18   1 H    0.996 --     1 C    0.970
    19   1 H    0.996 --     1 C    0.969
    20   1 H    0.996 --     1 C    0.985
    21   1 H    0.963 --     4 N    0.927
    22   1 H    0.998 --     5 C    0.968
    23   1 H    0.995 --     5 C    0.968
    24   1 H    0.997 --     6 C    0.972
    25   1 H    0.997 --     6 C    0.971
    26   1 H    0.997 --     8 C    0.969
    27   1 H    0.964 --     9 N    0.937
    28   1 H    0.998 --    12 C    0.965
    29   1 H    0.998 --    15 C    0.977
    30   1 H    0.995 --    15 C    0.979
    31   1 H    0.998 --    15 C    0.977
    32   1 H    0.998 --    16 C    0.967
    33   1 H    0.998 --    17 C    0.968
 ---------------------------------------------------------------------------

Topologies differ in total number of bonds
Writing topology from bond orders to xtbtopo.mol

molecular dipole:
                 x           y           z       tot (Debye)
 q only:        1.342      -2.414      -0.231
   full:        1.679      -2.812      -0.061       8.326
molecular quadrupole (traceless):
                xx          xy          yy          xz          yz          zz
 q only:      -11.765      13.544      -2.840       4.055       7.024      14.605
  q+dip:      -14.273      13.480       0.298       5.440       9.091      13.974
   full:      -13.162      14.660      -1.476       4.049       8.312      14.639

           -------------------------------------------------
          |                Geometry Summary                 |
           -------------------------------------------------

      molecular mass/u    :      232.2788350
   center of mass at/Å    :       -0.0385950      -0.0062953      -0.1412569
  moments of inertia/u·Å² :        0.9099756E+03   0.1352574E+04   0.2103084E+04
rotational constants/cm⁻¹ :        0.1852537E-01   0.1246337E-01   0.8015672E-02

 * 32 selected distances

     #   Z          #   Z                                           value/Å
     2   6 C        3   8 O                                       1.2222255
     2   6 C        4   7 N                                       1.3456709
     4   7 N        5   6 C                                       1.4443237
     5   6 C        6   6 C                                       1.5379156 (max)
     7   6 C        8   6 C                                       1.3662775
     8   6 C        9   7 N                                       1.3668126
     9   7 N       10   6 C                                       1.3656121
     7   6 C       11   6 C                                       1.4300702
    10   6 C       11   6 C                                       1.4175225
    11   6 C       12   6 C                                       1.3928810
    12   6 C       13   6 C                                       1.3859081
    13   6 C       14   8 O                                       1.3747355
    14   8 O       15   6 C                                       1.4084740
    13   6 C       16   6 C                                       1.4028645
    10   6 C       17   6 C                                       1.3865566
    16   6 C       17   6 C                                       1.3803827
     1   6 C       18   1 H                                       1.0874256
     1   6 C       19   1 H                                       1.0875980
     1   6 C       20   1 H                                       1.0861158
     4   7 N       21   1 H                                       1.0092732
     5   6 C       22   1 H                                       1.0953049
     5   6 C       23   1 H                                       1.0921962
     6   6 C       24   1 H                                       1.0913882
     6   6 C       25   1 H                                       1.0908067
     8   6 C       26   1 H                                       1.0732543
     9   7 N       27   1 H                                       1.0053738 (min)
    12   6 C       28   1 H                                       1.0790408
    15   6 C       29   1 H                                       1.0950133
    15   6 C       30   1 H                                       1.0890314
    15   6 C       31   1 H                                       1.0948156
    16   6 C       32   1 H                                       1.0781213
    17   6 C       33   1 H                                       1.0797310

 * 5 distinct bonds (by element types)

   Z      Z             #   av. dist./Å        max./Å        min./Å
   1 H    6 C          14     1.0871317     1.0953049     1.0732543
   6 C    6 C           9     1.4111532     1.5379156     1.3662775
   1 H    7 N           2     1.0073235     1.0092732     1.0053738
   6 C    7 N           4     1.3806048     1.4443237     1.3456709
   6 C    8 O           3     1.3351450     1.4084740     1.2222255


optimized geometry written to: xtbopt.xyz


           -------------------------------------------------
          | TOTAL ENERGY              -50.029842786604 Eh   |
          | GRADIENT NORM               0.000105804957 Eh/α |
          | HOMO-LUMO GAP               3.376552295048 eV   |
           -------------------------------------------------

------------------------------------------------------------------------
 * finished run on 2026/09/27 at 21:41:07.510     
------------------------------------------------------------------------
 total:
 * wall-time:     0 d,  0 h,  0 min,  1.144 sec
 *  cpu-time:     0 d,  0 h,  0 min,  0.344 sec
 * ratio c/w:     0.300 speedup
 SCF:
 * wall-time:     0 d,  0 h,  0 min,  0.056 sec
 *  cpu-time:     0 d,  0 h,  0 min,  0.000 sec
 * ratio c/w:     0.000 speedup
 ANC optimizer:
 * wall-time:     0 d,  0 h,  0 min,  1.034 sec
 *  cpu-time:     0 d,  0 h,  0 min,  0.328 sec
 * ratio c/w:     0.317 speedup

