      -----------------------------------------------------------      
     |                   =====================                   |     
     |                           x T B                           |     
     |                   =====================                   |     
     |                         S. Grimme                         |     
     |          Mulliken Center for Theoretical Chemistry        |     
     |                    University of Bonn                     |     
      -----------------------------------------------------------      

   * xtb version 6.7.1 (edcfbbe) compiled by 'VssAdministrator@runnervm171ch' on 2026-06-10

   xtb is free software: you can redistribute it and/or modify it under
   the terms of the GNU Lesser General Public License as published by
   the Free Software Foundation, either version 3 of the License, or
   (at your option) any later version.
   
   xtb is distributed in the hope that it will be useful,
   but WITHOUT ANY WARRANTY; without even the implied warranty of
   MERCHANTABILITY or FITNESS FOR A PARTICULAR PURPOSE.  See the
   GNU Lesser General Public License for more details.
   
   Cite this work as:
   * C. Bannwarth, E. Caldeweyher, S. Ehlert, A. Hansen, P. Pracht,
     J. Seibert, S. Spicher, S. Grimme, WIREs Comput. Mol. Sci., 2020, 11,
     e01493. DOI: 10.1002/wcms.1493
   
   for GFN2-xTB:
   * C. Bannwarth, S. Ehlert and S. Grimme., J. Chem. Theory Comput., 2019,
     15, 1652-1671. DOI: 10.1021/acs.jctc.8b01176
   for GFN1-xTB:
   * S. Grimme, C. Bannwarth, P. Shushkov, J. Chem. Theory Comput., 2017,
     13, 1989-2009. DOI: 10.1021/acs.jctc.7b00118
   for GFN0-xTB:
   * P. Pracht, E. Caldeweyher, S. Ehlert, S. Grimme, ChemRxiv, 2019, preprint.
     DOI: 10.26434/chemrxiv.8326202.v1
   for GFN-FF:
   * S. Spicher and S. Grimme, Angew. Chem. Int. Ed., 2020, 59, 15665-15673.
     DOI: 10.1002/anie.202004239
   
   for ALPB and GBSA implicit solvation:
   * S. Ehlert, M. Stahn, S. Spicher, S. Grimme, J. Chem. Theory Comput.,
     2021, 17, 4250-4261. DOI: 10.1021/acs.jctc.1c00471
   
   for ddCOSMO and CPCM-X implicit solvation:
   * M. Stahn, S. Ehlert, S. Grimme, J. Phys. Chem. A,
     2023, XX, XXXX-XXXX. DOI: 10.1021/acs.jpca.3c04382
   
   for DFT-D4:
   * E. Caldeweyher, C. Bannwarth and S. Grimme, J. Chem. Phys., 2017,
     147, 034112. DOI: 10.1063/1.4993215
   * E. Caldeweyher, S. Ehlert, A. Hansen, H. Neugebauer, S. Spicher,
     C. Bannwarth and S. Grimme, J. Chem. Phys., 2019, 150, 154122.
     DOI: 10.1063/1.5090222
   * E. Caldeweyher, J.-M. Mewes, S. Ehlert and S. Grimme, Phys. Chem. Chem. Phys.
     2020, 22, 8499-8512. DOI: 10.1039/D0CP00502A
   
   for sTDA-xTB:
   * S. Grimme and C. Bannwarth, J. Chem. Phys., 2016, 145, 054103.
     DOI: 10.1063/1.4959605
   
   in the mass-spec context:
   * V. Asgeirsson, C. Bauer and S. Grimme, Chem. Sci., 2017, 8, 4879.
     DOI: 10.1039/c7sc00601b
   * J. Koopman and S. Grimme, ACS Omega 2019, 4, 12, 15120-15133.
     DOI: 10.1021/acsomega.9b02011
   
   for metadynamics refer to:
   * S. Grimme, J. Chem. Theory Comput., 2019, 155, 2847-2862
     DOI: 10.1021/acs.jctc.9b00143
   
   for SPH calculations refer to:
   * S. Spicher and S. Grimme, J. Chem. Theory Comput., 2021, 17, 1701-1714
     DOI: 10.1021/acs.jctc.0c01306
   
   for ONIOM refer to:
   * C. Plett, A. Katbashev, S. Ehlert, S. Grimme, M. Bursch,
     Phys. Chem. Chem. Phys., 2023, 25, 17860-17868. DOI: 10.1039/D3CP02178E
   
   for DIPRO refer to:
   * J. Kohn, N. Gildemeister, S. Grimme, D. Fazzi, A. Hansen,
     J. Chem. Phys., 2023, just accepted.
   
   for PTB refer to:
   * S. Grimme, M. Mueller, A. Hansen, J. Chem. Phys., 2023, 158, 124111.
     DOI: 10.1063/5.0137838
   
   with help from (in alphabetical order)
   P. Atkinson, C. Bannwarth, F. Bohle, G. Brandenburg, E. Caldeweyher
   M. Checinski, S. Dohm, S. Ehlert, S. Ehrlich, I. Gerasimov, C. Hölzer
   A. Katbashev, J. Kohn, J. Koopman, C. Lavigne, S. Lehtola, F. März, M. Müller,
   F. Musil, H. Neugebauer, J. Pisarek, C. Plett, P. Pracht, F. Pultar,
   J. Seibert, P. Shushkov, S. Spicher, M. Stahn, M. Steiner, T. Strunk,
   J. Stückrath, T. Rose, and J. Unsleber
   
 * started run on 2026/09/27 at 16:06:26.606     
   ID    Z sym.   atoms
    1    6 C      1, 3-6, 8-17
    2    8 O      2
    3    7 N      7
    4    1 H      18-30

           -------------------------------------------------
          |                Calculation Setup                |
           -------------------------------------------------

          program call               : xtb input.xyz --gfn 2 --alpb acetonitrile --chrg 1 --uhf 1 --scc --json --parallel 1 --norestart
          coordinate file            : input.xyz
          omp threads                :                     1


           -------------------------------------------------
          |                 G F N 2 - x T B                 |
           -------------------------------------------------

        Reference                      10.1021/acs.jctc.8b01176
      * Hamiltonian:
        H0-scaling (s, p, d)           1.850000    2.230000    2.230000
        zeta-weighting                 0.500000
      * Dispersion:
        s8                             2.700000
        a1                             0.520000
        a2                             5.000000
        s9                             5.000000
      * Repulsion:
        kExp                           1.500000    1.000000
        rExp                           1.000000
      * Coulomb:
        alpha                          2.000000
        third order                    shell-resolved
        anisotropic                    true
        a3                             3.000000
        a5                             4.000000
        cn-shift                       1.200000
        cn-exp                         4.000000
        max-rad                        5.000000

      * Solvation model:               ALPB
        Solvent                        acetonitrile
        Parameter file                 internal GFN2-xTB/ALPB
        Dielectric constant                3.7500E+01
        Reference state                gsolv [1 M gas/solution]
        Free energy shift                  5.1987E-03 Eh       3.2622E+00 kcal/mol
        Temperature                        2.9815E+02 K
        Density                            7.8600E-01 kg/L
        Solvent mass                       4.1050E+01 g/mol
        Interaction kernel             P16
        Born radius scaling (c1)           1.7214E+00
        Born radii integrator          GBOBC
        Born offset                        0.0000E+00 a0       0.0000E+00 AA
        H-bond correction              true
        Ion screening                  false
        Surface tension                    1.0000E-05 Eh       1.5569E+01 dyn/cm
        Grid points                               230 per atom

          ...................................................
          :                      SETUP                      :
          :.................................................:
          :  # basis functions                  81          :
          :  # atomic orbitals                  81          :
          :  # shells                           47          :
          :  # electrons                        83          :
          :  max. iterations                   250          :
          :  Hamiltonian                  GFN2-xTB          :
          :  restarted?                      false          :
          :  GBSA solvation                   true          :
          :  PC potential                    false          :
          :  electronic temp.          300.0000000     K    :
          :  accuracy                    1.0000000          :
          :  -> integral cutoff          0.2500000E+02      :
          :  -> integral neglect         0.1000000E-07      :
          :  -> SCF convergence          0.1000000E-05 Eh   :
          :  -> wf. convergence          0.1000000E-03 e    :
          :  Broyden damping             0.4000000          :
          :  net charge                          1          :
          :  unpaired electrons                  1          :
          ...................................................

 iter      E             dE          RMSdq      gap      omega  full diag
   1    -46.0420974 -0.460421E+02  0.450E+00    2.83       0.0  T
   2    -46.1129936 -0.708962E-01  0.320E+00    3.03       1.0  T
   3    -46.1079393  0.505424E-02  0.178E+00    2.76       1.0  T
   4    -46.1016484  0.629089E-02  0.134E+00    2.94       1.0  T
   5    -46.1473903 -0.457419E-01  0.538E-01    3.11       1.0  T
   6    -46.1497598 -0.236946E-02  0.378E-01    3.12       1.0  T
   7    -46.1525256 -0.276580E-02  0.191E-01    3.11       1.0  T
   8    -46.1529617 -0.436099E-03  0.865E-02    3.11       1.0  T
   9    -46.1529574  0.422895E-05  0.820E-02    3.12       1.0  T
  10    -46.1531113 -0.153807E-03  0.219E-02    3.12       1.0  T
  11    -46.1531221 -0.108650E-04  0.121E-02    3.12       1.5  T
  12    -46.1531261 -0.398926E-05  0.406E-03    3.12       4.5  T
  13    -46.1531264 -0.311760E-06  0.168E-03    3.12      10.9  T
  14    -46.1531264  0.241881E-07  0.176E-03    3.12      10.4  T
  15    -46.1531265 -0.811567E-07  0.507E-04    3.12      36.0  T
  16    -46.1531265 -0.609146E-08  0.209E-04    3.12      87.4  T

   *** convergence criteria satisfied after 16 iterations ***

         #    Occupation            Energy/Eh            Energy/eV
      -------------------------------------------------------------
         1        2.0000           -0.7534971             -20.5037
       ...           ...                  ...                  ...
        36        2.0000           -0.4643964             -12.6369
        37        2.0000           -0.4585352             -12.4774
        38        2.0000           -0.4521766             -12.3044
        39        2.0000           -0.4492076             -12.2236
        40        2.0000           -0.4392522             -11.9527
        41        1.6269           -0.4160520             -11.3214
        42        1.3731           -0.4150662             -11.2945 (HOMO)
        43                         -0.3004399              -8.1754 (LUMO)
        44                         -0.2577951              -7.0150
        45                         -0.2562055              -6.9717
        46                         -0.2462965              -6.7021
        47                         -0.1991990              -5.4205
       ...                                ...                  ...
        81                          0.6737471              18.3336
      -------------------------------------------------------------
                  HL-Gap            0.1146263 Eh            3.1191 eV
             Fermi-level           -0.3866561 Eh          -10.5214 eV

 SCC (total)                   0 d,  0 h,  0 min,  0.036 sec
 SCC setup                      ...        0 min,  0.001 sec (  2.371%)
 Dispersion                     ...        0 min,  0.000 sec (  0.735%)
 classical contributions        ...        0 min,  0.000 sec (  0.181%)
 integral evaluation            ...        0 min,  0.004 sec ( 10.228%)
 iterations                     ...        0 min,  0.020 sec ( 54.666%)
 molecular gradient             ...        0 min,  0.011 sec ( 30.478%)
 printout                       ...        0 min,  0.000 sec (  1.292%)

         :::::::::::::::::::::::::::::::::::::::::::::::::::::
         ::                     SUMMARY                     ::
         :::::::::::::::::::::::::::::::::::::::::::::::::::::
         :: total energy             -45.373191206070 Eh    ::
         :: total w/o Gsasa/hb       -45.353604047105 Eh    ::
         :: gradient norm              0.058309904533 Eh/a0 ::
         :: HOMO-LUMO gap              3.119140239060 eV    ::
         ::.................................................::
         :: SCC energy               -46.153391636300 Eh    ::
         :: -> isotropic ES            0.080968664722 Eh    ::
         :: -> anisotropic ES         -0.012053087560 Eh    ::
         :: -> anisotropic XC          0.025297950950 Eh    ::
         :: -> dispersion             -0.028737350991 Eh    ::
         :: -> Gsolv                  -0.073606457791 Eh    ::
         ::    -> Gelec               -0.054019298826 Eh    ::
         ::    -> Gsasa               -0.022494695427 Eh    ::
         ::    -> Ghb                 -0.002291118289 Eh    ::
         ::    -> Gshift               0.005198654751 Eh    ::
         :: repulsion energy           0.780200430230 Eh    ::
         :: add. restraining           0.000000000000 Eh    ::
         :: total charge               1.000000000015 e     ::
         :::::::::::::::::::::::::::::::::::::::::::::::::::::

           -------------------------------------------------
          |                Property Printout                |
           -------------------------------------------------

    * Orbital Energies and Occupations

         #    Occupation            Energy/Eh            Energy/eV
      -------------------------------------------------------------
         1        2.0000           -0.7534971             -20.5037
       ...           ...                  ...                  ...
        30        2.0000           -0.5062654             -13.7762
        31        2.0000           -0.5046417             -13.7320
        32        2.0000           -0.5033100             -13.6958
        33        2.0000           -0.4845907             -13.1864
        34        2.0000           -0.4795573             -13.0494
        35        2.0000           -0.4741501             -12.9023
        36        2.0000           -0.4643964             -12.6369
        37        2.0000           -0.4585352             -12.4774
        38        2.0000           -0.4521766             -12.3044
        39        2.0000           -0.4492076             -12.2236
        40        2.0000           -0.4392522             -11.9527
        41        1.6269           -0.4160520             -11.3214
        42        1.3731           -0.4150662             -11.2945 (HOMO)
        43                         -0.3004399              -8.1754 (LUMO)
        44                         -0.2577951              -7.0150
        45                         -0.2562055              -6.9717
        46                         -0.2462965              -6.7021
        47                         -0.1991990              -5.4205
        48                         -0.1268574              -3.4520
        49                         -0.1168870              -3.1807
        50                         -0.0265436              -0.7223
        51                         -0.0052950              -0.1441
        52                          0.0568333               1.5465
        53                          0.0818448               2.2271
       ...                                ...                  ...
        81                          0.6737471              18.3336
      -------------------------------------------------------------
                  HL-Gap            0.1146263 Eh            3.1191 eV
             Fermi-level           -0.3866561 Eh          -10.5214 eV

     #   Z          covCN         q      C6AA      α(0)
     1   6 C        3.642     0.007    20.810     6.559
     2   8 O        1.705    -0.217    17.601     5.664
     3   6 C        2.864     0.160    24.536     8.119
     4   6 C        2.925    -0.028    28.706     8.786
     5   6 C        2.907    -0.032    28.801     8.800
     6   6 C        3.084     0.073    26.290     8.405
     7   7 N        2.784    -0.080    22.797     7.091
     8   6 C        3.071     0.079    26.170     8.388
     9   6 C        3.018    -0.042    29.032     8.838
    10   6 C        3.104     0.010    27.660     8.618
    11   6 C        2.909    -0.049    29.212     8.863
    12   6 C        2.970     0.021    27.538     8.608
    13   6 C        2.924    -0.025    28.635     8.775
    14   6 C        2.918    -0.020    28.502     8.755
    15   6 C        2.919    -0.007    28.196     8.708
    16   6 C        2.918    -0.019    28.493     8.753
    17   6 C        2.926    -0.022    28.543     8.761
    18   1 H        0.924     0.080     1.980     2.201
    19   1 H        0.924     0.080     1.979     2.200
    20   1 H        0.925     0.094     1.844     2.123
    21   1 H        0.926     0.100     1.788     2.091
    22   1 H        0.926     0.093     1.849     2.126
    23   1 H        0.860     0.230     0.966     1.539
    24   1 H        0.926     0.090     1.876     2.142
    25   1 H        0.926     0.090     1.875     2.141
    26   1 H        0.926     0.067     2.124     2.279
    27   1 H        0.926     0.066     2.134     2.284
    28   1 H        0.926     0.066     2.132     2.283
    29   1 H        0.926     0.066     2.133     2.284
    30   1 H        0.926     0.071     2.070     2.250

 Mol. C6AA /au·bohr⁶  :      11064.387372
 Mol. C8AA /au·bohr⁸  :     275466.572738
 Mol. α(0) /au        :        168.435819


Wiberg/Mayer (AO) data.
largest (>0.10) Wiberg bond orders for each atom

 ---------------------------------------------------------------------------
     #   Z sym  total        # sym  WBO       # sym  WBO       # sym  WBO
 ---------------------------------------------------------------------------
     1   6 C    3.908 --     2 O    0.977    20 H    0.974    18 H    0.961
                            19 H    0.960
     2   8 O    2.236 --     3 C    1.119     1 C    0.977
     3   6 C    3.867 --    11 C    1.380     4 C    1.241     2 O    1.119
     4   6 C    3.874 --     5 C    1.512     3 C    1.241    21 H    0.961
     5   6 C    3.938 --     4 C    1.512     6 C    1.312    22 H    0.960
     6   6 C    3.875 --     5 C    1.312     7 N    1.212    10 C    1.187
     7   7 N    3.526 --     6 C    1.212     8 C    1.190    23 H    0.916
     8   6 C    3.888 --     9 C    1.398     7 N    1.190    12 C    1.129
     9   6 C    3.834 --     8 C    1.398    10 C    1.281    24 H    0.965
    10   6 C    3.952 --    11 C    1.322     9 C    1.281     6 C    1.187
    11   6 C    3.862 --     3 C    1.380    10 C    1.322    25 H    0.957
    12   6 C    3.938 --    13 C    1.329    17 C    1.324     8 C    1.129
    13   6 C    3.954 --    14 C    1.479    12 C    1.329    26 H    0.963
    14   6 C    3.976 --    13 C    1.479    15 C    1.401    27 H    0.967
    15   6 C    3.908 --    16 C    1.403    14 C    1.401    28 H    0.968
    16   6 C    3.979 --    17 C    1.481    15 C    1.403    29 H    0.967
    17   6 C    3.949 --    16 C    1.481    12 C    1.324    30 H    0.965
    18   1 H    0.981 --     1 C    0.961
    19   1 H    0.980 --     1 C    0.960
    20   1 H    0.991 --     1 C    0.974
    21   1 H    0.990 --     4 C    0.961
    22   1 H    0.990 --     5 C    0.960
    23   1 H    0.947 --     7 N    0.916
    24   1 H    0.991 --     9 C    0.965
    25   1 H    0.991 --    11 C    0.957
    26   1 H    0.995 --    13 C    0.963
    27   1 H    0.995 --    14 C    0.967
    28   1 H    0.995 --    15 C    0.968
    29   1 H    0.995 --    16 C    0.967
    30   1 H    0.995 --    17 C    0.965
 ---------------------------------------------------------------------------

Topologies differ in total number of bonds
Writing topology from bond orders to xtbtopo.mol

molecular dipole:
                 x           y           z       tot (Debye)
 q only:       -0.219      -0.324      -0.077
   full:       -0.117      -0.359      -0.086       0.983
molecular quadrupole (traceless):
                xx          xy          yy          xz          yz          zz
 q only:       35.782      -7.674      -9.440      -0.865       8.159     -26.342
  q+dip:       37.960      -8.453      -8.139      -1.218      12.062     -29.822
   full:       34.935      -8.867      -8.715      -1.366       8.664     -26.220


           -------------------------------------------------
          | TOTAL ENERGY              -45.373191206070 Eh   |
          | GRADIENT NORM               0.058309904533 Eh/α |
          | HOMO-LUMO GAP               3.119140239060 eV   |
           -------------------------------------------------

------------------------------------------------------------------------
 * finished run on 2026/09/27 at 16:06:26.664     
------------------------------------------------------------------------
 total:
 * wall-time:     0 d,  0 h,  0 min,  0.057 sec
 *  cpu-time:     0 d,  0 h,  0 min,  0.000 sec
 * ratio c/w:     0.000 speedup
 SCF:
 * wall-time:     0 d,  0 h,  0 min,  0.036 sec
 *  cpu-time:     0 d,  0 h,  0 min,  0.000 sec
 * ratio c/w:     0.000 speedup

