      -----------------------------------------------------------      
     |                   =====================                   |     
     |                           x T B                           |     
     |                   =====================                   |     
     |                         S. Grimme                         |     
     |          Mulliken Center for Theoretical Chemistry        |     
     |                    University of Bonn                     |     
      -----------------------------------------------------------      

   * xtb version 6.7.1 (edcfbbe) compiled by 'VssAdministrator@runnervm171ch' on 2026-06-10

   xtb is free software: you can redistribute it and/or modify it under
   the terms of the GNU Lesser General Public License as published by
   the Free Software Foundation, either version 3 of the License, or
   (at your option) any later version.
   
   xtb is distributed in the hope that it will be useful,
   but WITHOUT ANY WARRANTY; without even the implied warranty of
   MERCHANTABILITY or FITNESS FOR A PARTICULAR PURPOSE.  See the
   GNU Lesser General Public License for more details.
   
   Cite this work as:
   * C. Bannwarth, E. Caldeweyher, S. Ehlert, A. Hansen, P. Pracht,
     J. Seibert, S. Spicher, S. Grimme, WIREs Comput. Mol. Sci., 2020, 11,
     e01493. DOI: 10.1002/wcms.1493
   
   for GFN2-xTB:
   * C. Bannwarth, S. Ehlert and S. Grimme., J. Chem. Theory Comput., 2019,
     15, 1652-1671. DOI: 10.1021/acs.jctc.8b01176
   for GFN1-xTB:
   * S. Grimme, C. Bannwarth, P. Shushkov, J. Chem. Theory Comput., 2017,
     13, 1989-2009. DOI: 10.1021/acs.jctc.7b00118
   for GFN0-xTB:
   * P. Pracht, E. Caldeweyher, S. Ehlert, S. Grimme, ChemRxiv, 2019, preprint.
     DOI: 10.26434/chemrxiv.8326202.v1
   for GFN-FF:
   * S. Spicher and S. Grimme, Angew. Chem. Int. Ed., 2020, 59, 15665-15673.
     DOI: 10.1002/anie.202004239
   
   for ALPB and GBSA implicit solvation:
   * S. Ehlert, M. Stahn, S. Spicher, S. Grimme, J. Chem. Theory Comput.,
     2021, 17, 4250-4261. DOI: 10.1021/acs.jctc.1c00471
   
   for ddCOSMO and CPCM-X implicit solvation:
   * M. Stahn, S. Ehlert, S. Grimme, J. Phys. Chem. A,
     2023, XX, XXXX-XXXX. DOI: 10.1021/acs.jpca.3c04382
   
   for DFT-D4:
   * E. Caldeweyher, C. Bannwarth and S. Grimme, J. Chem. Phys., 2017,
     147, 034112. DOI: 10.1063/1.4993215
   * E. Caldeweyher, S. Ehlert, A. Hansen, H. Neugebauer, S. Spicher,
     C. Bannwarth and S. Grimme, J. Chem. Phys., 2019, 150, 154122.
     DOI: 10.1063/1.5090222
   * E. Caldeweyher, J.-M. Mewes, S. Ehlert and S. Grimme, Phys. Chem. Chem. Phys.
     2020, 22, 8499-8512. DOI: 10.1039/D0CP00502A
   
   for sTDA-xTB:
   * S. Grimme and C. Bannwarth, J. Chem. Phys., 2016, 145, 054103.
     DOI: 10.1063/1.4959605
   
   in the mass-spec context:
   * V. Asgeirsson, C. Bauer and S. Grimme, Chem. Sci., 2017, 8, 4879.
     DOI: 10.1039/c7sc00601b
   * J. Koopman and S. Grimme, ACS Omega 2019, 4, 12, 15120-15133.
     DOI: 10.1021/acsomega.9b02011
   
   for metadynamics refer to:
   * S. Grimme, J. Chem. Theory Comput., 2019, 155, 2847-2862
     DOI: 10.1021/acs.jctc.9b00143
   
   for SPH calculations refer to:
   * S. Spicher and S. Grimme, J. Chem. Theory Comput., 2021, 17, 1701-1714
     DOI: 10.1021/acs.jctc.0c01306
   
   for ONIOM refer to:
   * C. Plett, A. Katbashev, S. Ehlert, S. Grimme, M. Bursch,
     Phys. Chem. Chem. Phys., 2023, 25, 17860-17868. DOI: 10.1039/D3CP02178E
   
   for DIPRO refer to:
   * J. Kohn, N. Gildemeister, S. Grimme, D. Fazzi, A. Hansen,
     J. Chem. Phys., 2023, just accepted.
   
   for PTB refer to:
   * S. Grimme, M. Mueller, A. Hansen, J. Chem. Phys., 2023, 158, 124111.
     DOI: 10.1063/5.0137838
   
   with help from (in alphabetical order)
   P. Atkinson, C. Bannwarth, F. Bohle, G. Brandenburg, E. Caldeweyher
   M. Checinski, S. Dohm, S. Ehlert, S. Ehrlich, I. Gerasimov, C. Hölzer
   A. Katbashev, J. Kohn, J. Koopman, C. Lavigne, S. Lehtola, F. März, M. Müller,
   F. Musil, H. Neugebauer, J. Pisarek, C. Plett, P. Pracht, F. Pultar,
   J. Seibert, P. Shushkov, S. Spicher, M. Stahn, M. Steiner, T. Strunk,
   J. Stückrath, T. Rose, and J. Unsleber
   
 * started run on 2026/09/27 at 14:01:47.258     
   ID    Z sym.   atoms
    1    6 C      1, 3-10
    2    7 N      2
    3    1 H      11-19

           -------------------------------------------------
          |                Calculation Setup                |
           -------------------------------------------------

          program call               : xtb input.xyz --gfn 2 --chrg 0 --uhf 0 --scc --json --parallel 1 --norestart
          coordinate file            : input.xyz
          omp threads                :                     1


           -------------------------------------------------
          |                 G F N 2 - x T B                 |
           -------------------------------------------------

        Reference                      10.1021/acs.jctc.8b01176
      * Hamiltonian:
        H0-scaling (s, p, d)           1.850000    2.230000    2.230000
        zeta-weighting                 0.500000
      * Dispersion:
        s8                             2.700000
        a1                             0.520000
        a2                             5.000000
        s9                             5.000000
      * Repulsion:
        kExp                           1.500000    1.000000
        rExp                           1.000000
      * Coulomb:
        alpha                          2.000000
        third order                    shell-resolved
        anisotropic                    true
        a3                             3.000000
        a5                             4.000000
        cn-shift                       1.200000
        cn-exp                         4.000000
        max-rad                        5.000000


          ...................................................
          :                      SETUP                      :
          :.................................................:
          :  # basis functions                  49          :
          :  # atomic orbitals                  49          :
          :  # shells                           29          :
          :  # electrons                        50          :
          :  max. iterations                   250          :
          :  Hamiltonian                  GFN2-xTB          :
          :  restarted?                      false          :
          :  GBSA solvation                  false          :
          :  PC potential                    false          :
          :  electronic temp.          300.0000000     K    :
          :  accuracy                    1.0000000          :
          :  -> integral cutoff          0.2500000E+02      :
          :  -> integral neglect         0.1000000E-07      :
          :  -> SCF convergence          0.1000000E-05 Eh   :
          :  -> wf. convergence          0.1000000E-03 e    :
          :  Broyden damping             0.4000000          :
          :  net charge                          0          :
          :  unpaired electrons                  0          :
          ...................................................

 iter      E             dE          RMSdq      gap      omega  full diag
   1    -27.2113170 -0.272113E+02  0.383E+00    3.39       0.0  T
   2    -27.2584636 -0.471466E-01  0.267E+00    3.62       1.0  T
   3    -27.2609845 -0.252090E-02  0.139E+00    3.67       1.0  T
   4    -27.2661825 -0.519807E-02  0.509E-01    3.57       1.0  T
   5    -27.2696890 -0.350647E-02  0.108E-01    3.61       1.0  T
   6    -27.2697709 -0.819139E-04  0.509E-02    3.62       1.0  T
   7    -27.2697927 -0.218251E-04  0.210E-02    3.61       1.1  T
   8    -27.2697926  0.173149E-06  0.682E-03    3.61       3.4  T
   9    -27.2697932 -0.574070E-06  0.144E-03    3.61      15.9  T
  10    -27.2697932 -0.189478E-07  0.624E-04    3.61      36.8  T
  11    -27.2697932 -0.835897E-09  0.324E-04    3.61      70.9  T

   *** convergence criteria satisfied after 11 iterations ***

         #    Occupation            Energy/Eh            Energy/eV
      -------------------------------------------------------------
         1        2.0000           -0.6672975             -18.1581
       ...           ...                  ...                  ...
        19        2.0000           -0.4490134             -12.2183
        20        2.0000           -0.4421906             -12.0326
        21        2.0000           -0.4207948             -11.4504
        22        2.0000           -0.4085603             -11.1175
        23        2.0000           -0.4084627             -11.1148
        24        2.0000           -0.3729785             -10.1493
        25        2.0000           -0.3559642              -9.6863 (HOMO)
        26                         -0.2231550              -6.0724 (LUMO)
        27                         -0.1899222              -5.1680
        28                         -0.1487680              -4.0482
        29                         -0.0624070              -1.6982
        30                          0.0192709               0.5244
       ...                                ...                  ...
        49                          0.7370750              20.0568
      -------------------------------------------------------------
                  HL-Gap            0.1328092 Eh            3.6139 eV
             Fermi-level           -0.2895596 Eh           -7.8793 eV

 SCC (total)                   0 d,  0 h,  0 min,  0.040 sec
 SCC setup                      ...        0 min,  0.000 sec (  1.095%)
 Dispersion                     ...        0 min,  0.000 sec (  0.841%)
 classical contributions        ...        0 min,  0.000 sec (  0.203%)
 integral evaluation            ...        0 min,  0.003 sec (  6.656%)
 iterations                     ...        0 min,  0.028 sec ( 69.961%)
 molecular gradient             ...        0 min,  0.008 sec ( 19.838%)
 printout                       ...        0 min,  0.001 sec (  1.320%)

         :::::::::::::::::::::::::::::::::::::::::::::::::::::
         ::                     SUMMARY                     ::
         :::::::::::::::::::::::::::::::::::::::::::::::::::::
         :: total energy             -26.788396643898 Eh    ::
         :: gradient norm              0.003902088195 Eh/a0 ::
         :: HOMO-LUMO gap              3.613922506944 eV    ::
         ::.................................................::
         :: SCC energy               -27.269743938686 Eh    ::
         :: -> isotropic ES            0.003886179724 Eh    ::
         :: -> anisotropic ES          0.005444169518 Eh    ::
         :: -> anisotropic XC          0.015847089381 Eh    ::
         :: -> dispersion             -0.016969516915 Eh    ::
         :: repulsion energy           0.481347294788 Eh    ::
         :: add. restraining           0.000000000000 Eh    ::
         :: total charge              -0.000000000000 e     ::
         :::::::::::::::::::::::::::::::::::::::::::::::::::::

           -------------------------------------------------
          |                Property Printout                |
           -------------------------------------------------

    * Orbital Energies and Occupations

         #    Occupation            Energy/Eh            Energy/eV
      -------------------------------------------------------------
         1        2.0000           -0.6672975             -18.1581
       ...           ...                  ...                  ...
        13        2.0000           -0.4961185             -13.5001
        14        2.0000           -0.4911216             -13.3641
        15        2.0000           -0.4828010             -13.1377
        16        2.0000           -0.4751878             -12.9305
        17        2.0000           -0.4702342             -12.7957
        18        2.0000           -0.4558675             -12.4048
        19        2.0000           -0.4490134             -12.2183
        20        2.0000           -0.4421906             -12.0326
        21        2.0000           -0.4207948             -11.4504
        22        2.0000           -0.4085603             -11.1175
        23        2.0000           -0.4084627             -11.1148
        24        2.0000           -0.3729785             -10.1493
        25        2.0000           -0.3559642              -9.6863 (HOMO)
        26                         -0.2231550              -6.0724 (LUMO)
        27                         -0.1899222              -5.1680
        28                         -0.1487680              -4.0482
        29                         -0.0624070              -1.6982
        30                          0.0192709               0.5244
        31                          0.1146927               3.1209
        32                          0.1212653               3.2998
        33                          0.1439967               3.9183
        34                          0.1491498               4.0586
        35                          0.1557408               4.2379
        36                          0.1610323               4.3819
       ...                                ...                  ...
        49                          0.7370750              20.0568
      -------------------------------------------------------------
                  HL-Gap            0.1328092 Eh            3.6139 eV
             Fermi-level           -0.2895596 Eh           -7.8793 eV

     #   Z          covCN         q      C6AA      α(0)
     1   6 C        3.690    -0.046    21.593     6.650
     2   7 N        2.820    -0.022    21.679     6.915
     3   6 C        3.051    -0.008    28.179     8.706
     4   6 C        3.008    -0.078    29.931     8.974
     5   6 C        3.116    -0.013    28.169     8.694
     6   6 C        2.911    -0.037    28.929     8.820
     7   6 C        2.919    -0.042    29.046     8.838
     8   6 C        2.923    -0.039    28.963     8.826
     9   6 C        2.908    -0.052    29.287     8.874
    10   6 C        3.108     0.031    27.162     8.539
    11   1 H        0.924     0.053     2.277     2.360
    12   1 H        0.924     0.053     2.277     2.360
    13   1 H        0.925     0.057     2.229     2.335
    14   1 H        0.926     0.026     2.644     2.543
    15   1 H        0.926     0.026     2.640     2.541
    16   1 H        0.926     0.025     2.656     2.549
    17   1 H        0.926     0.022     2.697     2.568
    18   1 H        0.926     0.023     2.692     2.566
    19   1 H        0.926     0.020     2.737     2.587

 Mol. C6AA /au·bohr⁶  :       4414.033317
 Mol. C8AA /au·bohr⁸  :     106880.369913
 Mol. α(0) /au        :        106.243002


Wiberg/Mayer (AO) data.
largest (>0.10) Wiberg bond orders for each atom

 ---------------------------------------------------------------------------
     #   Z sym  total        # sym  WBO       # sym  WBO       # sym  WBO
 ---------------------------------------------------------------------------
     1   6 C    3.976 --     2 N    1.009    13 H    0.982    11 H    0.976
                            12 H    0.975
     2   7 N    3.598 --     3 C    1.198    10 C    1.168     1 C    1.009
     3   6 C    3.953 --     4 C    1.598     2 N    1.198    14 H    0.969
     4   6 C    3.977 --     3 C    1.598     5 C    1.232    15 H    0.974
     5   6 C    3.985 --     6 C    1.329    10 C    1.241     4 C    1.232
     6   6 C    3.992 --     7 C    1.506     5 C    1.329    16 H    0.970
                             9 C    0.113
     7   6 C    3.990 --     6 C    1.506     8 C    1.370    17 H    0.972
     8   6 C    3.992 --     9 C    1.494     7 C    1.370    18 H    0.972
     9   6 C    3.990 --     8 C    1.494    10 C    1.338    19 H    0.968
                             6 C    0.113
    10   6 C    3.959 --     9 C    1.338     5 C    1.241     2 N    1.168
    11   1 H    0.996 --     1 C    0.976
    12   1 H    0.996 --     1 C    0.975
    13   1 H    0.996 --     1 C    0.982
    14   1 H    0.999 --     3 C    0.969
    15   1 H    0.999 --     4 C    0.974
    16   1 H    0.999 --     6 C    0.970
    17   1 H    0.999 --     7 C    0.972
    18   1 H    0.999 --     8 C    0.972
    19   1 H    0.999 --     9 C    0.968
 ---------------------------------------------------------------------------

Topologies differ in total number of bonds
Writing topology from bond orders to xtbtopo.mol

molecular dipole:
                 x           y           z       tot (Debye)
 q only:       -0.836      -0.289       0.021
   full:       -0.968      -0.350       0.026       2.618
molecular quadrupole (traceless):
                xx          xy          yy          xz          yz          zz
 q only:        3.337       1.844      -1.119      -0.128      -0.142      -2.218
  q+dip:        5.801       1.489       0.571       0.204      -1.343      -6.372
   full:        4.417       1.611      -0.602       0.024      -0.582      -3.814


           -------------------------------------------------
          | TOTAL ENERGY              -26.788396643898 Eh   |
          | GRADIENT NORM               0.003902088195 Eh/α |
          | HOMO-LUMO GAP               3.613922506944 eV   |
           -------------------------------------------------

------------------------------------------------------------------------
 * finished run on 2026/09/27 at 14:01:47.328     
------------------------------------------------------------------------
 total:
 * wall-time:     0 d,  0 h,  0 min,  0.069 sec
 *  cpu-time:     0 d,  0 h,  0 min,  0.016 sec
 * ratio c/w:     0.227 speedup
 SCF:
 * wall-time:     0 d,  0 h,  0 min,  0.041 sec
 *  cpu-time:     0 d,  0 h,  0 min,  0.016 sec
 * ratio c/w:     0.385 speedup

