22

C      3.391903    0.572897    0.178454
C      3.142818   -0.795350    0.101522
C      1.831422   -1.277732    0.019971
C      0.755294   -0.365928    0.015985
C      1.038234    0.997131    0.094171
C      2.343271    1.497503    0.176308
N     -0.166329    1.659957    0.072484
C     -1.215914    0.776106   -0.016737
C     -2.594857    1.013307   -0.066660
C     -3.439596   -0.096947   -0.157673
C     -2.923827   -1.390200   -0.196970
C     -1.542218   -1.608524   -0.146015
C     -0.667978   -0.505483   -0.054039
H      4.417857    0.928587    0.241213
H      3.973010   -1.497246    0.104679
H      1.645770   -2.345821   -0.039681
H      2.541425    2.562581    0.236383
H     -0.266817    2.662829    0.116287
H     -3.000516    2.019182   -0.036296
H     -4.516173    0.052588   -0.198367
H     -3.598569   -2.239662   -0.267864
H     -1.148210   -2.619774   -0.177157
