16

C     -2.106854    0.653401    0.190809
C     -2.080407   -0.728488    0.013596
C     -0.870539   -1.413691   -0.135423
C      0.308645   -0.660024   -0.099766
N      1.621931   -1.056304   -0.217304
C      2.454425    0.027430   -0.121926
C      1.671312    1.144437    0.060239
C      0.312599    0.724026    0.076166
C     -0.918173    1.391975    0.224060
H     -3.059069    1.165466    0.304632
H     -3.015178   -1.284037   -0.009339
H     -0.853947   -2.489639   -0.273194
H      1.921021   -2.011633   -0.354163
H      3.527378   -0.089282   -0.191604
H      2.033554    2.157899    0.170703
H     -0.946697    2.468464    0.362513
