30

C     -5.257936    1.409868    0.227081
O     -4.909836    0.069188   -0.093848
C     -3.573190   -0.228313   -0.139527
C     -3.288210   -1.556590   -0.463460
C     -1.973416   -2.026733   -0.552783
C     -0.948152   -1.110113   -0.304888
N      0.417067   -1.277622   -0.317242
C      1.064896   -0.099306   -0.016241
C      0.073219    0.840763    0.207821
C     -1.193055    0.219882    0.022768
C     -2.528051    0.670253    0.106674
C      2.522212    0.015564    0.052996
C      3.347524   -0.690211   -0.833761
C      4.738498   -0.575030   -0.757745
C      5.319602    0.247510    0.204656
C      4.511352    0.958114    1.088829
C      3.120748    0.844176    1.011577
H     -4.873532    2.108433   -0.523473
H     -4.913518    1.677759    1.231412
H     -6.349805    1.482316    0.219994
H     -4.109724   -2.244920   -0.651486
H     -1.768256   -3.061459   -0.805167
H      0.880003   -2.155601   -0.501014
H      0.240384    1.877809    0.468034
H     -2.706230    1.707330    0.361937
H      2.919802   -1.320539   -1.608888
H      5.367273   -1.122761   -1.454925
H      6.401119    0.337986    0.263172
H      4.961013    1.601546    1.840529
H      2.508197    1.400700    1.716968
