      -----------------------------------------------------------      
     |                   =====================                   |     
     |                           x T B                           |     
     |                   =====================                   |     
     |                         S. Grimme                         |     
     |          Mulliken Center for Theoretical Chemistry        |     
     |                    University of Bonn                     |     
      -----------------------------------------------------------      

   * xtb version 6.7.1 (edcfbbe) compiled by 'VssAdministrator@runnervm171ch' on 2026-06-10

   xtb is free software: you can redistribute it and/or modify it under
   the terms of the GNU Lesser General Public License as published by
   the Free Software Foundation, either version 3 of the License, or
   (at your option) any later version.
   
   xtb is distributed in the hope that it will be useful,
   but WITHOUT ANY WARRANTY; without even the implied warranty of
   MERCHANTABILITY or FITNESS FOR A PARTICULAR PURPOSE.  See the
   GNU Lesser General Public License for more details.
   
   Cite this work as:
   * C. Bannwarth, E. Caldeweyher, S. Ehlert, A. Hansen, P. Pracht,
     J. Seibert, S. Spicher, S. Grimme, WIREs Comput. Mol. Sci., 2020, 11,
     e01493. DOI: 10.1002/wcms.1493
   
   for GFN2-xTB:
   * C. Bannwarth, S. Ehlert and S. Grimme., J. Chem. Theory Comput., 2019,
     15, 1652-1671. DOI: 10.1021/acs.jctc.8b01176
   for GFN1-xTB:
   * S. Grimme, C. Bannwarth, P. Shushkov, J. Chem. Theory Comput., 2017,
     13, 1989-2009. DOI: 10.1021/acs.jctc.7b00118
   for GFN0-xTB:
   * P. Pracht, E. Caldeweyher, S. Ehlert, S. Grimme, ChemRxiv, 2019, preprint.
     DOI: 10.26434/chemrxiv.8326202.v1
   for GFN-FF:
   * S. Spicher and S. Grimme, Angew. Chem. Int. Ed., 2020, 59, 15665-15673.
     DOI: 10.1002/anie.202004239
   
   for ALPB and GBSA implicit solvation:
   * S. Ehlert, M. Stahn, S. Spicher, S. Grimme, J. Chem. Theory Comput.,
     2021, 17, 4250-4261. DOI: 10.1021/acs.jctc.1c00471
   
   for ddCOSMO and CPCM-X implicit solvation:
   * M. Stahn, S. Ehlert, S. Grimme, J. Phys. Chem. A,
     2023, XX, XXXX-XXXX. DOI: 10.1021/acs.jpca.3c04382
   
   for DFT-D4:
   * E. Caldeweyher, C. Bannwarth and S. Grimme, J. Chem. Phys., 2017,
     147, 034112. DOI: 10.1063/1.4993215
   * E. Caldeweyher, S. Ehlert, A. Hansen, H. Neugebauer, S. Spicher,
     C. Bannwarth and S. Grimme, J. Chem. Phys., 2019, 150, 154122.
     DOI: 10.1063/1.5090222
   * E. Caldeweyher, J.-M. Mewes, S. Ehlert and S. Grimme, Phys. Chem. Chem. Phys.
     2020, 22, 8499-8512. DOI: 10.1039/D0CP00502A
   
   for sTDA-xTB:
   * S. Grimme and C. Bannwarth, J. Chem. Phys., 2016, 145, 054103.
     DOI: 10.1063/1.4959605
   
   in the mass-spec context:
   * V. Asgeirsson, C. Bauer and S. Grimme, Chem. Sci., 2017, 8, 4879.
     DOI: 10.1039/c7sc00601b
   * J. Koopman and S. Grimme, ACS Omega 2019, 4, 12, 15120-15133.
     DOI: 10.1021/acsomega.9b02011
   
   for metadynamics refer to:
   * S. Grimme, J. Chem. Theory Comput., 2019, 155, 2847-2862
     DOI: 10.1021/acs.jctc.9b00143
   
   for SPH calculations refer to:
   * S. Spicher and S. Grimme, J. Chem. Theory Comput., 2021, 17, 1701-1714
     DOI: 10.1021/acs.jctc.0c01306
   
   for ONIOM refer to:
   * C. Plett, A. Katbashev, S. Ehlert, S. Grimme, M. Bursch,
     Phys. Chem. Chem. Phys., 2023, 25, 17860-17868. DOI: 10.1039/D3CP02178E
   
   for DIPRO refer to:
   * J. Kohn, N. Gildemeister, S. Grimme, D. Fazzi, A. Hansen,
     J. Chem. Phys., 2023, just accepted.
   
   for PTB refer to:
   * S. Grimme, M. Mueller, A. Hansen, J. Chem. Phys., 2023, 158, 124111.
     DOI: 10.1063/5.0137838
   
   with help from (in alphabetical order)
   P. Atkinson, C. Bannwarth, F. Bohle, G. Brandenburg, E. Caldeweyher
   M. Checinski, S. Dohm, S. Ehlert, S. Ehrlich, I. Gerasimov, C. Hölzer
   A. Katbashev, J. Kohn, J. Koopman, C. Lavigne, S. Lehtola, F. März, M. Müller,
   F. Musil, H. Neugebauer, J. Pisarek, C. Plett, P. Pracht, F. Pultar,
   J. Seibert, P. Shushkov, S. Spicher, M. Stahn, M. Steiner, T. Strunk,
   J. Stückrath, T. Rose, and J. Unsleber
   
 * started run on 2026/09/27 at 16:06:25.981     
   ID    Z sym.   atoms
    1    6 C      1, 3-6, 8-17
    2    8 O      2
    3    7 N      7
    4    1 H      18-30

           -------------------------------------------------
          |                Calculation Setup                |
           -------------------------------------------------

          program call               : xtb input.xyz --gfn 2 --alpb acetonitrile --chrg 0 --uhf 0 --opt tight --json --parallel 1 --norestart
          coordinate file            : input.xyz
          omp threads                :                     1


           -------------------------------------------------
          |                 G F N 2 - x T B                 |
           -------------------------------------------------

        Reference                      10.1021/acs.jctc.8b01176
      * Hamiltonian:
        H0-scaling (s, p, d)           1.850000    2.230000    2.230000
        zeta-weighting                 0.500000
      * Dispersion:
        s8                             2.700000
        a1                             0.520000
        a2                             5.000000
        s9                             5.000000
      * Repulsion:
        kExp                           1.500000    1.000000
        rExp                           1.000000
      * Coulomb:
        alpha                          2.000000
        third order                    shell-resolved
        anisotropic                    true
        a3                             3.000000
        a5                             4.000000
        cn-shift                       1.200000
        cn-exp                         4.000000
        max-rad                        5.000000

      * Solvation model:               ALPB
        Solvent                        acetonitrile
        Parameter file                 internal GFN2-xTB/ALPB
        Dielectric constant                3.7500E+01
        Reference state                gsolv [1 M gas/solution]
        Free energy shift                  5.1987E-03 Eh       3.2622E+00 kcal/mol
        Temperature                        2.9815E+02 K
        Density                            7.8600E-01 kg/L
        Solvent mass                       4.1050E+01 g/mol
        Interaction kernel             P16
        Born radius scaling (c1)           1.7214E+00
        Born radii integrator          GBOBC
        Born offset                        0.0000E+00 a0       0.0000E+00 AA
        H-bond correction              true
        Ion screening                  false
        Surface tension                    1.0000E-05 Eh       1.5569E+01 dyn/cm
        Grid points                               230 per atom

          ...................................................
          :                      SETUP                      :
          :.................................................:
          :  # basis functions                  81          :
          :  # atomic orbitals                  81          :
          :  # shells                           47          :
          :  # electrons                        84          :
          :  max. iterations                   250          :
          :  Hamiltonian                  GFN2-xTB          :
          :  restarted?                      false          :
          :  GBSA solvation                   true          :
          :  PC potential                    false          :
          :  electronic temp.          300.0000000     K    :
          :  accuracy                    1.0000000          :
          :  -> integral cutoff          0.2500000E+02      :
          :  -> integral neglect         0.1000000E-07      :
          :  -> SCF convergence          0.1000000E-05 Eh   :
          :  -> wf. convergence          0.1000000E-03 e    :
          :  Broyden damping             0.4000000          :
          :  net charge                          0          :
          :  unpaired electrons                  0          :
          ...................................................

 iter      E             dE          RMSdq      gap      omega  full diag
   1    -46.4271885 -0.464272E+02  0.423E+00    2.87       0.0  T
   2    -46.4860641 -0.588756E-01  0.265E+00    2.81       1.0  T
   3    -46.4812866  0.477759E-02  0.128E+00    2.98       1.0  T
   4    -46.4946329 -0.133464E-01  0.454E-01    2.83       1.0  T
   5    -46.4986578 -0.402492E-02  0.101E-01    2.90       1.0  T
   6    -46.4987593 -0.101461E-03  0.517E-02    2.90       1.0  T
   7    -46.4987922 -0.328636E-04  0.228E-02    2.90       1.0  T
   8    -46.4987936 -0.144579E-05  0.890E-03    2.90       2.1  T
   9    -46.4987947 -0.105780E-05  0.292E-03    2.90       6.3  T
  10    -46.4987947 -0.560327E-07  0.130E-03    2.90      14.0  T
  11    -46.4987947 -0.121309E-07  0.682E-04    2.90      26.8  T
  12    -46.4987947 -0.310511E-08  0.276E-04    2.90      66.2  T

   *** convergence criteria satisfied after 12 iterations ***

         #    Occupation            Energy/Eh            Energy/eV
      -------------------------------------------------------------
         1        2.0000           -0.7042190             -19.1628
       ...           ...                  ...                  ...
        36        2.0000           -0.4208824             -11.4528
        37        2.0000           -0.4136406             -11.2557
        38        2.0000           -0.4113509             -11.1934
        39        2.0000           -0.4030332             -10.9671
        40        2.0000           -0.4021985             -10.9444
        41        2.0000           -0.3618121              -9.8454
        42        2.0000           -0.3546593              -9.6508 (HOMO)
        43                         -0.2481648              -6.7529 (LUMO)
        44                         -0.2260513              -6.1512
        45                         -0.2127048              -5.7880
        46                         -0.1838791              -5.0036
        47                         -0.1505264              -4.0960
       ...                                ...                  ...
        81                          0.7122740              19.3820
      -------------------------------------------------------------
                  HL-Gap            0.1064945 Eh            2.8979 eV
             Fermi-level           -0.3014120 Eh           -8.2018 eV

 SCC (total)                   0 d,  0 h,  0 min,  0.047 sec
 SCC setup                      ...        0 min,  0.003 sec (  5.785%)
 Dispersion                     ...        0 min,  0.001 sec (  1.518%)
 classical contributions        ...        0 min,  0.000 sec (  0.498%)
 integral evaluation            ...        0 min,  0.005 sec ( 10.298%)
 iterations                     ...        0 min,  0.025 sec ( 53.949%)
 molecular gradient             ...        0 min,  0.012 sec ( 26.564%)
 printout                       ...        0 min,  0.001 sec (  1.333%)

         :::::::::::::::::::::::::::::::::::::::::::::::::::::
         ::                     SUMMARY                     ::
         :::::::::::::::::::::::::::::::::::::::::::::::::::::
         :: total energy             -45.754592718696 Eh    ::
         :: total w/o Gsasa/hb       -45.736264584632 Eh    ::
         :: gradient norm              0.060431212203 Eh/a0 ::
         :: HOMO-LUMO gap              2.897863020130 eV    ::
         ::.................................................::
         :: SCC energy               -46.499045411065 Eh    ::
         :: -> isotropic ES            0.022916638536 Eh    ::
         :: -> anisotropic ES          0.007533505929 Eh    ::
         :: -> anisotropic XC          0.022257544521 Eh    ::
         :: -> dispersion             -0.030213680029 Eh    ::
         :: -> Gsolv                  -0.020234618446 Eh    ::
         ::    -> Gelec               -0.001906484383 Eh    ::
         ::    -> Gsasa               -0.022682061519 Eh    ::
         ::    -> Ghb                 -0.000844727296 Eh    ::
         ::    -> Gshift               0.005198654751 Eh    ::
         :: repulsion energy           0.744452692370 Eh    ::
         :: add. restraining           0.000000000000 Eh    ::
         :: total charge              -0.000000000000 e     ::
         :::::::::::::::::::::::::::::::::::::::::::::::::::::

      ----------------------------------------------------------- 
     |                   =====================                   |
     |                        A N C O P T                        |
     |                   =====================                   |
     |               Approximate Normal Coordinate               |
     |                Rational Function Optimizer                |
      ----------------------------------------------------------- 
      ----------------------------------------------------------- 
     |                   =====================                   |
     |                        A N C O P T                        |
     |                   =====================                   |
     |               Approximate Normal Coordinate               |
     |                Rational Function Optimizer                |
      ----------------------------------------------------------- 

          ...................................................
          :                      SETUP                      :
          :.................................................:
          :   optimization level             tight          :
          :   max. optcycles                   200          :
          :   ANC micro-cycles                  20          :
          :   degrees of freedom                84          :
          :.................................................:
          :   RF solver                   davidson          :
          :   write xtbopt.log                true          :
          :   linear?                        false          :
          :   energy convergence         0.1000000E-05 Eh   :
          :   grad. convergence          0.8000000E-03 Eh/α :
          :   maxmium RF displ.          1.0000000          :
          :   Hlow (freq-cutoff)         0.1000000E-01      :
          :   Hmax (freq-cutoff)         5.0000000          :
          :   S6 in model hess.         20.0000000          :
          ...................................................

generating ANC from exact Hessian ...
Using Lindh-Hessian (1995)
 Shifting diagonal of input Hessian by    9.3146742747644805E-003
 Lowest  eigenvalues of input Hessian
    0.000000    0.000000    0.000000    0.000000    0.000000    0.000000
    0.010000    0.010682    0.011070    0.012390    0.013833    0.014999
    0.017847    0.018868    0.022855    0.023517    0.028334    0.030835
 Highest eigenvalues
    1.905037    1.950408    1.969067    2.062346    2.069967    2.180859


........................................................................
.............................. CYCLE    1 ..............................
........................................................................

 iter      E             dE          RMSdq      gap      omega  full diag
   1    -46.4987947 -0.464988E+02  0.121E-04    2.90       0.0  T
   2    -46.4987947 -0.100663E-09  0.790E-05    2.90     231.1  T
   3    -46.4987947 -0.472511E-10  0.537E-05    2.90     340.0  T
     SCC iter.                  ...        0 min,  0.004 sec
     gradient                   ...        0 min,  0.011 sec
 * total energy  :   -45.7545927 Eh     change       -0.5392167E-09 Eh
   gradient norm :     0.0604322 Eh/α   predicted     0.0000000E+00 (-100.00%)
   displ. norm   :     0.2321524 α      lambda       -0.5832187E-02
   maximum displ.:     0.1387168 α      in ANC's #12, #14, #41, ...

........................................................................
.............................. CYCLE    2 ..............................
........................................................................

 iter      E             dE          RMSdq      gap      omega  full diag
   1    -46.5271449 -0.465271E+02  0.167E-01    2.98       0.0  T
   2    -46.5271621 -0.171680E-04  0.987E-02    2.98       1.0  T
   3    -46.5271518  0.102556E-04  0.262E-02    2.98       1.0  T
   4    -46.5271662 -0.143807E-04  0.442E-03    2.98       4.1  T
   5    -46.5271664 -0.194664E-06  0.217E-03    2.98       8.4  T
   6    -46.5271664 -0.184776E-07  0.107E-03    2.98      17.0  T
   7    -46.5271664 -0.969037E-08  0.306E-04    2.98      59.7  T
   8    -46.5271664 -0.359925E-09  0.168E-04    2.98     108.7  T
     SCC iter.                  ...        0 min,  0.008 sec
     gradient                   ...        0 min,  0.010 sec
 * total energy  :   -45.7584706 Eh     change       -0.3877928E-02 Eh
   gradient norm :     0.0215288 Eh/α   predicted    -0.3073997E-02 ( -20.73%)
   displ. norm   :     0.1679727 α      lambda       -0.1207370E-02
   maximum displ.:     0.1033993 α      in ANC's #12, #14, #2, ...

........................................................................
.............................. CYCLE    3 ..............................
........................................................................

 iter      E             dE          RMSdq      gap      omega  full diag
   1    -46.5397191 -0.465397E+02  0.102E-01    3.02       0.0  T
   2    -46.5397266 -0.750238E-05  0.599E-02    3.02       1.0  T
   3    -46.5397209  0.568892E-05  0.181E-02    3.03       1.0  T
   4    -46.5397282 -0.722929E-05  0.358E-03    3.02       5.1  T
   5    -46.5397284 -0.265847E-06  0.140E-03    3.02      13.0  T
   6    -46.5397284 -0.197434E-07  0.687E-04    3.02      26.6  T
   7    -46.5397284 -0.165043E-08  0.252E-04    3.02      72.3  T
     SCC iter.                  ...        0 min,  0.008 sec
     gradient                   ...        0 min,  0.012 sec
 * total energy  :   -45.7591431 Eh     change       -0.6724067E-03 Eh
   gradient norm :     0.0042063 Eh/α   predicted    -0.6207849E-03 (  -7.68%)
   displ. norm   :     0.0693604 α      lambda       -0.9355756E-04
   maximum displ.:     0.0468712 α      in ANC's #2, #4, #12, ...

........................................................................
.............................. CYCLE    4 ..............................
........................................................................

 iter      E             dE          RMSdq      gap      omega  full diag
   1    -46.5400590 -0.465401E+02  0.354E-02    3.02       0.0  T
   2    -46.5400594 -0.429484E-06  0.210E-02    3.02       1.0  T
   3    -46.5400587  0.715915E-06  0.537E-03    3.02       3.4  T
   4    -46.5400596 -0.835172E-06  0.901E-04    3.02      20.3  T
   5    -46.5400596 -0.161264E-07  0.329E-04    3.02      55.5  T
     SCC iter.                  ...        0 min,  0.006 sec
     gradient                   ...        0 min,  0.010 sec
 * total energy  :   -45.7592129 Eh     change       -0.6987245E-04 Eh
   gradient norm :     0.0025295 Eh/α   predicted    -0.4700486E-04 ( -32.73%)
   displ. norm   :     0.1059971 α      lambda       -0.7847257E-04
   maximum displ.:     0.0813518 α      in ANC's #2, #4, #1, ...

........................................................................
.............................. CYCLE    5 ..............................
........................................................................

 iter      E             dE          RMSdq      gap      omega  full diag
   1    -46.5394119 -0.465394E+02  0.521E-02    3.01       0.0  T
   2    -46.5394122 -0.262017E-06  0.305E-02    3.02       1.0  T
   3    -46.5394120  0.229819E-06  0.361E-03    3.02       5.1  T
   4    -46.5394123 -0.309118E-06  0.656E-04    3.02      27.8  T
   5    -46.5394123 -0.327564E-08  0.322E-04    3.02      56.7  T
     SCC iter.                  ...        0 min,  0.006 sec
     gradient                   ...        0 min,  0.011 sec
 * total energy  :   -45.7592686 Eh     change       -0.5569248E-04 Eh
   gradient norm :     0.0020275 Eh/α   predicted    -0.3969232E-04 ( -28.73%)
   displ. norm   :     0.0951705 α      lambda       -0.4397989E-04
   maximum displ.:     0.0743519 α      in ANC's #2, #4, #1, ...

........................................................................
.............................. CYCLE    6 ..............................
........................................................................

 iter      E             dE          RMSdq      gap      omega  full diag
   1    -46.5389601 -0.465390E+02  0.463E-02    3.01       0.0  T
   2    -46.5389602 -0.138860E-06  0.271E-02    3.01       1.0  T
   3    -46.5389597  0.515200E-06  0.452E-03    3.01       4.0  T
   4    -46.5389603 -0.602218E-06  0.500E-04    3.01      36.5  T
   5    -46.5389603 -0.183378E-08  0.277E-04    3.01      65.9  T
     SCC iter.                  ...        0 min,  0.007 sec
     gradient                   ...        0 min,  0.010 sec
 * total energy  :   -45.7593060 Eh     change       -0.3741791E-04 Eh
   gradient norm :     0.0021834 Eh/α   predicted    -0.2219400E-04 ( -40.69%)
   displ. norm   :     0.1116133 α      lambda       -0.5091451E-04
   maximum displ.:     0.0838123 α      in ANC's #2, #4, #1, ...

........................................................................
.............................. CYCLE    7 ..............................
........................................................................

 iter      E             dE          RMSdq      gap      omega  full diag
   1    -46.5387220 -0.465387E+02  0.547E-02    3.00       0.0  T
   2    -46.5387222 -0.247470E-06  0.322E-02    3.00       1.0  T
   3    -46.5387209  0.128277E-05  0.699E-03    3.00       2.6  T
   4    -46.5387224 -0.146332E-05  0.610E-04    3.00      29.9  T
   5    -46.5387224 -0.378378E-08  0.320E-04    3.00      57.1  T
   6    -46.5387224 -0.252022E-09  0.155E-04    3.00     117.4  T
     SCC iter.                  ...        0 min,  0.008 sec
     gradient                   ...        0 min,  0.011 sec
 * total energy  :   -45.7593506 Eh     change       -0.4452568E-04 Eh
   gradient norm :     0.0020351 Eh/α   predicted    -0.2577465E-04 ( -42.11%)
   displ. norm   :     0.1423326 α      lambda       -0.5825630E-04
   maximum displ.:     0.1056335 α      in ANC's #2, #4, #1, ...

........................................................................
.............................. CYCLE    8 ..............................
........................................................................

 iter      E             dE          RMSdq      gap      omega  full diag
   1    -46.5387141 -0.465387E+02  0.701E-02    2.99       0.0  T
   2    -46.5387145 -0.331914E-06  0.412E-02    2.99       1.0  T
   3    -46.5387129  0.157772E-05  0.789E-03    2.99       2.3  T
   4    -46.5387147 -0.180567E-05  0.756E-04    2.99      24.2  T
   5    -46.5387147 -0.563291E-08  0.392E-04    2.99      46.6  T
   6    -46.5387147 -0.116891E-09  0.194E-04    2.99      94.3  T
     SCC iter.                  ...        0 min,  0.008 sec
     gradient                   ...        0 min,  0.011 sec
 * total energy  :   -45.7593992 Eh     change       -0.4865321E-04 Eh
   gradient norm :     0.0018272 Eh/α   predicted    -0.2971873E-04 ( -38.92%)
   displ. norm   :     0.2176761 α      lambda       -0.4699891E-04
   maximum displ.:     0.1634938 α      in ANC's #2, #4, #1, ...

........................................................................
.............................. CYCLE    9 ..............................
........................................................................

 iter      E             dE          RMSdq      gap      omega  full diag
   1    -46.5388076 -0.465388E+02  0.108E-01    2.98       0.0  T
   2    -46.5388082 -0.529547E-06  0.631E-02    2.99       1.0  T
   3    -46.5388066  0.155766E-05  0.821E-03    2.98       2.2  T
   4    -46.5388085 -0.185200E-05  0.107E-03    2.98      17.0  T
   5    -46.5388085 -0.103967E-07  0.558E-04    2.98      32.7  T
   6    -46.5388085 -0.184286E-09  0.235E-04    2.98      77.8  T
     SCC iter.                  ...        0 min,  0.007 sec
     gradient                   ...        0 min,  0.010 sec
 * total energy  :   -45.7594520 Eh     change       -0.5275512E-04 Eh
   gradient norm :     0.0017132 Eh/α   predicted    -0.2400057E-04 ( -54.51%)
   displ. norm   :     0.1251829 α      lambda       -0.2182090E-04
   maximum displ.:     0.0990949 α      in ANC's #2, #1, #4, ...

........................................................................
.............................. CYCLE   10 ..............................
........................................................................

 iter      E             dE          RMSdq      gap      omega  full diag
   1    -46.5392751 -0.465393E+02  0.624E-02    2.98       0.0  T
   2    -46.5392752 -0.120785E-06  0.366E-02    2.98       1.0  T
   3    -46.5392751  0.513583E-07  0.191E-03    2.98       9.6  T
   4    -46.5392753 -0.105598E-06  0.511E-04    2.98      35.7  T
   5    -46.5392753 -0.576151E-09  0.264E-04    2.98      69.0  T
     SCC iter.                  ...        0 min,  0.007 sec
     gradient                   ...        0 min,  0.010 sec
 * total energy  :   -45.7594796 Eh     change       -0.2766799E-04 Eh
   gradient norm :     0.0010700 Eh/α   predicted    -0.1099069E-04 ( -60.28%)
   displ. norm   :     0.0992182 α      lambda       -0.1690258E-04
   maximum displ.:     0.0805156 α      in ANC's #2, #1, #4, ...

........................................................................
.............................. CYCLE   11 ..............................
........................................................................

 iter      E             dE          RMSdq      gap      omega  full diag
   1    -46.5395248 -0.465395E+02  0.493E-02    2.98       0.0  T
   2    -46.5395249 -0.784863E-07  0.289E-02    2.98       1.0  T
   3    -46.5395248  0.638929E-07  0.193E-03    2.98       9.5  T
   4    -46.5395249 -0.103368E-06  0.459E-04    2.98      39.8  T
   5    -46.5395249 -0.127827E-09  0.234E-04    2.98      78.0  T
     SCC iter.                  ...        0 min,  0.007 sec
     gradient                   ...        0 min,  0.011 sec
 * total energy  :   -45.7595013 Eh     change       -0.2166871E-04 Eh
   gradient norm :     0.0005653 Eh/α   predicted    -0.8490432E-05 ( -60.82%)
   displ. norm   :     0.0951598 α      lambda       -0.1371418E-04
   maximum displ.:     0.0763588 α      in ANC's #2, #1, #3, ...

........................................................................
.............................. CYCLE   12 ..............................
........................................................................

 iter      E             dE          RMSdq      gap      omega  full diag
   1    -46.5395318 -0.465395E+02  0.462E-02    2.97       0.0  T
   2    -46.5395319 -0.650361E-07  0.271E-02    2.97       1.0  T
   3    -46.5395319  0.404877E-08  0.135E-03    2.98      13.5  T
   4    -46.5395319 -0.370422E-07  0.517E-04    2.97      35.3  T
   5    -46.5395319 -0.110290E-09  0.198E-04    2.97      92.2  T
     SCC iter.                  ...        0 min,  0.006 sec
     gradient                   ...        0 min,  0.011 sec
 * total energy  :   -45.7595185 Eh     change       -0.1714293E-04 Eh
   gradient norm :     0.0006980 Eh/α   predicted    -0.6885091E-05 ( -59.84%)
   displ. norm   :     0.0937183 α      lambda       -0.1114890E-04
   maximum displ.:     0.0738287 α      in ANC's #2, #1, #3, ...

........................................................................
.............................. CYCLE   13 ..............................
........................................................................

 iter      E             dE          RMSdq      gap      omega  full diag
   1    -46.5395075 -0.465395E+02  0.456E-02    2.97       0.0  T
   2    -46.5395076 -0.622579E-07  0.269E-02    2.97       1.0  T
   3    -46.5395076 -0.228375E-08  0.118E-03    2.97      15.4  T
   4    -46.5395076 -0.261078E-07  0.534E-04    2.97      34.2  T
   5    -46.5395076 -0.105695E-08  0.194E-04    2.97      94.1  T
     SCC iter.                  ...        0 min,  0.007 sec
     gradient                   ...        0 min,  0.010 sec
 * total energy  :   -45.7595321 Eh     change       -0.1362080E-04 Eh
   gradient norm :     0.0008647 Eh/α   predicted    -0.5596676E-05 ( -58.91%)
   displ. norm   :     0.0967631 α      lambda       -0.9984251E-05
   maximum displ.:     0.0751173 α      in ANC's #2, #1, #3, ...

........................................................................
.............................. CYCLE   14 ..............................
........................................................................

 iter      E             dE          RMSdq      gap      omega  full diag
   1    -46.5394765 -0.465395E+02  0.466E-02    2.97       0.0  T
   2    -46.5394766 -0.697603E-07  0.275E-02    2.97       1.0  T
   3    -46.5394765  0.521608E-07  0.196E-03    2.97       9.3  T
   4    -46.5394766 -0.932560E-07  0.629E-04    2.97      29.0  T
   5    -46.5394766  0.267683E-09  0.228E-04    2.97      80.1  T
     SCC iter.                  ...        0 min,  0.006 sec
     gradient                   ...        0 min,  0.011 sec
 * total energy  :   -45.7595447 Eh     change       -0.1261879E-04 Eh
   gradient norm :     0.0006441 Eh/α   predicted    -0.5015292E-05 ( -60.26%)
   displ. norm   :     0.1053065 α      lambda       -0.9115382E-05
   maximum displ.:     0.0816990 α      in ANC's #2, #1, #3, ...

........................................................................
.............................. CYCLE   15 ..............................
........................................................................

 iter      E             dE          RMSdq      gap      omega  full diag
   1    -46.5394090 -0.465394E+02  0.512E-02    2.97       0.0  T
   2    -46.5394090 -0.952929E-07  0.302E-02    2.97       1.0  T
   3    -46.5394089  0.150489E-06  0.283E-03    2.97       6.5  T
   4    -46.5394091 -0.207507E-06  0.698E-04    2.97      26.2  T
   5    -46.5394091 -0.735838E-10  0.312E-04    2.97      58.5  T
     SCC iter.                  ...        0 min,  0.007 sec
     gradient                   ...        0 min,  0.011 sec
 * total energy  :   -45.7595566 Eh     change       -0.1187879E-04 Eh
   gradient norm :     0.0005451 Eh/α   predicted    -0.4581296E-05 ( -61.43%)
   displ. norm   :     0.1263298 α      lambda       -0.9553942E-05
   maximum displ.:     0.0987258 α      in ANC's #2, #1, #3, ...

........................................................................
.............................. CYCLE   16 ..............................
........................................................................

 iter      E             dE          RMSdq      gap      omega  full diag
   1    -46.5393618 -0.465394E+02  0.617E-02    2.96       0.0  T
   2    -46.5393620 -0.143278E-06  0.364E-02    2.96       1.0  T
   3    -46.5393617  0.262473E-06  0.369E-03    2.96       5.0  T
   4    -46.5393621 -0.352829E-06  0.865E-04    2.96      21.1  T
   5    -46.5393621  0.192642E-09  0.389E-04    2.96      47.0  T
     SCC iter.                  ...        0 min,  0.006 sec
     gradient                   ...        0 min,  0.012 sec
 * total energy  :   -45.7595675 Eh     change       -0.1088496E-04 Eh
   gradient norm :     0.0006037 Eh/α   predicted    -0.4811410E-05 ( -55.80%)
   displ. norm   :     0.1087259 α      lambda       -0.5962391E-05
   maximum displ.:     0.0858519 α      in ANC's #2, #1, #3, ...

........................................................................
.............................. CYCLE   17 ..............................
........................................................................

 iter      E             dE          RMSdq      gap      omega  full diag
   1    -46.5393288 -0.465393E+02  0.532E-02    2.96       0.0  T
   2    -46.5393289 -0.108823E-06  0.314E-02    2.96       1.0  T
   3    -46.5393287  0.167674E-06  0.300E-03    2.96       6.1  T
   4    -46.5393289 -0.228500E-06  0.710E-04    2.96      25.7  T
   5    -46.5393289 -0.867921E-09  0.344E-04    2.96      53.1  T
     SCC iter.                  ...        0 min,  0.006 sec
     gradient                   ...        0 min,  0.010 sec
 * total energy  :   -45.7595731 Eh     change       -0.5630905E-05 Eh
   gradient norm :     0.0005956 Eh/α   predicted    -0.2998860E-05 ( -46.74%)
   displ. norm   :     0.0459956 α      lambda       -0.1915166E-05
   maximum displ.:     0.0375691 α      in ANC's #2, #1, #5, ...

........................................................................
.............................. CYCLE   18 ..............................
........................................................................

 iter      E             dE          RMSdq      gap      omega  full diag
   1    -46.5394743 -0.465395E+02  0.225E-02    2.96       0.0  T
   2    -46.5394744 -0.177409E-07  0.132E-02    2.96       1.4  T
   3    -46.5394744  0.146136E-07  0.962E-04    2.96      19.0  T
   4    -46.5394744 -0.236883E-07  0.260E-04    2.96      70.3  T
     SCC iter.                  ...        0 min,  0.005 sec
     gradient                   ...        0 min,  0.010 sec
 * total energy  :   -45.7595749 Eh     change       -0.1856721E-05 Eh
   gradient norm :     0.0003949 Eh/α   predicted    -0.9591825E-06 ( -48.34%)
   displ. norm   :     0.0306831 α      lambda       -0.1064671E-05
   maximum displ.:     0.0245777 α      in ANC's #2, #1, #5, ...

........................................................................
.............................. CYCLE   19 ..............................
........................................................................

 iter      E             dE          RMSdq      gap      omega  full diag
   1    -46.5395308 -0.465395E+02  0.148E-02    2.96       0.0  T
   2    -46.5395308 -0.894138E-08  0.868E-03    2.96       2.1  T
   3    -46.5395308  0.954298E-08  0.690E-04    2.96      26.4  T
   4    -46.5395308 -0.135359E-07  0.155E-04    2.96     117.7  T
     SCC iter.                  ...        0 min,  0.005 sec
     gradient                   ...        0 min,  0.012 sec
 * total energy  :   -45.7595760 Eh     change       -0.1103097E-05 Eh
   gradient norm :     0.0002839 Eh/α   predicted    -0.5337387E-06 ( -51.61%)
   displ. norm   :     0.0231967 α      lambda       -0.7151966E-06
   maximum displ.:     0.0168903 α      in ANC's #2, #4, #5, ...

........................................................................
.............................. CYCLE   20 ..............................
........................................................................

 iter      E             dE          RMSdq      gap      omega  full diag
   1    -46.5395120 -0.465395E+02  0.108E-02    2.96       0.0  T
   2    -46.5395120 -0.581590E-08  0.632E-03    2.96       2.9  T
   3    -46.5395120  0.311460E-08  0.426E-04    2.96      42.9  T
   4    -46.5395120 -0.542020E-08  0.130E-04    2.96     140.1  T
     SCC iter.                  ...        0 min,  0.005 sec
     gradient                   ...        0 min,  0.010 sec
 * total energy  :   -45.7595767 Eh     change       -0.6824360E-06 Eh
   gradient norm :     0.0001910 Eh/α   predicted    -0.3596192E-06 ( -47.30%)
   displ. norm   :     0.0130929 α      lambda       -0.2852202E-06
   maximum displ.:     0.0084453 α      in ANC's #2, #4, #5, ...

   *** GEOMETRY OPTIMIZATION CONVERGED AFTER 20 ITERATIONS ***

------------------------------------------------------------------------
 total energy gain   :        -0.0049840 Eh       -3.1275 kcal/mol
 total RMSD          :         0.3090205 a0        0.1635 Å
 total power (kW/mol):        -0.6542756 (step)  -27.4612 (real)
------------------------------------------------------------------------

 ANCopt (total)                0 d,  0 h,  0 min,  0.477 sec
 optimizer setup                ...        0 min,  0.001 sec (  0.131%)
 model hessian                  ...        0 min,  0.006 sec (  1.267%)
 ANC generation                 ...        0 min,  0.002 sec (  0.471%)
 coordinate transformation      ...        0 min,  0.000 sec (  0.047%)
 single point calculation       ...        0 min,  0.451 sec ( 94.727%)
 optimization log               ...        0 min,  0.004 sec (  0.817%)
 hessian update                 ...        0 min,  0.000 sec (  0.102%)
 rational function              ...        0 min,  0.009 sec (  1.867%)

================
 final structure:
================
30
 xtb: 6.7.1 (edcfbbe)
C           -5.22705158541105        1.40069862503283        0.29293115619746
O           -4.85790928219733        0.10148920365474       -0.10522307155784
C           -3.52019872186588       -0.20634212499994       -0.15823043889436
C           -3.24442757552535       -1.52803743370661       -0.56309839484432
C           -1.95697260159953       -1.99679727430181       -0.67167217723940
C           -0.92145155063218       -1.12091770869112       -0.36663746019905
N            0.43146574433703       -1.29098205207133       -0.39430235130855
C            1.04774650023406       -0.13002266452743        0.00645299867584
C            0.08007765555733        0.80948944195762        0.28170097182083
C           -1.18042828270305        0.20747733498236        0.04713027834937
C           -2.49791258658919        0.66776805841662        0.14931290303958
C            2.49385455477595       -0.00378067125792        0.07191737741442
C            3.33068441948422       -0.82858002954188       -0.68327130499768
C            4.70453568597738       -0.69274352454103       -0.61479001418248
C            5.27263346666147        0.26667447656374        0.20713753439491
C            4.45340417320673        1.09473129913917        0.95846586038136
C            3.08008250122146        0.96221130542849        0.89311502595578
H           -4.83201303883341        2.15755434262687       -0.39286113332868
H           -4.88731066735322        1.61944264113480        1.31068793497289
H           -6.31544917370837        1.41899635933489        0.26341849895008
H           -4.08628156037337       -2.16378112600078       -0.78840481154847
H           -1.76241631319087       -3.01159555915306       -0.98467174317136
H            0.90386717990727       -2.15351916833475       -0.60383838631966
H            0.24635793198357        1.82277583494547        0.58946108221461
H           -2.68295844115545        1.68305455869623        0.46197562312297
H            2.90730648056092       -1.56637613060731       -1.34940671966077
H            5.33642859029369       -1.33674712388794       -1.20940897862100
H            6.34637009924957        0.37032969260612        0.26013879367435
H            4.88934425287758        1.84573617579742        1.60155245564792
H            2.44862014480993        1.60179224130545        1.49041849106140

 Bond Distances (Angstroems)
 ---------------------------
C1-O2=1.4081         C1-H18=1.0951        C1-H19=1.0950        C1-H20=1.0890        O2-C1=1.4081         O2-C3=1.3737         
C3-O2=1.3737         C3-C4=1.4096         C3-C11=1.3798        C4-C3=1.4096         C4-C5=1.3744         C4-H21=1.0787        
C5-C4=1.3744         C5-C6=1.3901         C5-H22=1.0796        C6-C5=1.3901         C6-N7=1.3638         C6-C10=1.4152        
N7-C6=1.3638         N7-C8=1.3741         N7-H23=1.0055        C8-N7=1.3741         C8-C9=1.3765         C8-C12=1.4531        
C9-C8=1.3765         C9-C10=1.4164        C9-H24=1.0720        C10-C6=1.4152        C10-C9=1.4164        C10-C11=1.3993       
C11-C3=1.3798        C11-C10=1.3993       C11-H25=1.0783       C12-C8=1.4531        C12-C13=1.3967       C12-C17=1.3968       
C13-C12=1.3967       C13-C14=1.3822       C13-H26=1.0804       C14-C13=1.3822       C14-C15=1.3852       C14-H27=1.0806       
C15-C14=1.3852       C15-C16=1.3861       C15-H28=1.0800       C16-C15=1.3861       C16-C17=1.3812       C16-H29=1.0806       
C17-C12=1.3968       C17-C16=1.3812       C17-H30=1.0792       H18-C1=1.0951        H19-C1=1.0950        H20-C1=1.0890        
H21-C4=1.0787        H22-C5=1.0796        H23-N7=1.0055        H24-C9=1.0720        H25-C11=1.0783       H26-C13=1.0804       
H27-C14=1.0806       H28-C15=1.0800       H29-C16=1.0806       H30-C17=1.0792       
 C  H  Rav=1.0824 sigma=0.0067  Rmin=1.0720  Rmax=1.0951    12
 C  C  Rav=1.3962 sigma=0.0200  Rmin=1.3744  Rmax=1.4531    15
 N  H  Rav=1.0055 sigma=0.0000  Rmin=1.0055  Rmax=1.0055     1
 N  C  Rav=1.3690 sigma=0.0051  Rmin=1.3638  Rmax=1.3741     2
 O  C  Rav=1.3909 sigma=0.0172  Rmin=1.3737  Rmax=1.4081     2

 selected bond angles (degree)
 --------------------
H18-C1-O2=111.47               H19-C1-O2=111.46               H19-C1-H18=109.39              H20-C1-O2=105.66               
H20-C1-H18=109.39              H20-C1-H19=109.39              C3-O2-C1=118.23                C4-C3-O2=114.31                
C11-C3-O2=124.82               C11-C3-C4=120.87               C5-C4-C3=121.72                H21-C4-C3=117.38               
H21-C4-C5=120.90               C6-C5-C4=117.75                H22-C5-C4=120.82               H22-C5-C6=121.44               
N7-C6-C5=130.99                C10-C6-C5=121.28               C10-C6-N7=107.73               C8-N7-C6=109.49                
H23-N7-C6=125.26               H23-N7-C8=125.09               C9-C8-N7=108.64                C12-C8-N7=122.20               
C12-C8-C9=129.15               C10-C9-C8=107.60               H24-C9-C8=126.41               H24-C9-C10=125.97              
C9-C10-C6=106.53               C11-C10-C6=120.16              C11-C10-C9=133.31              

 selected dihedral angles (degree)
 ---------------------------------
C3-O2-C1-H18= 61.30           C3-O2-C1-H19=298.76           C3-O2-C1-H20=180.04           C4-C3-O2-C1=179.85            
C11-C3-O2-C1=359.89           C5-C4-C3-O2=179.83            C5-C4-C3-C11=359.80           H21-C4-C3-O2=359.94           
H21-C4-C3-C11=179.91          C6-C5-C4-C3=  0.04            C6-C5-C4-H21=179.93           H22-C5-C4-C3=180.10           
H22-C5-C4-H21=  0.00          N7-C6-C5-C4=180.77            N7-C6-C5-H22=  0.72           C10-C6-C5-C4=  0.25           
C10-C6-C5-H22=180.19          C8-N7-C6-C5=180.50            C8-N7-C6-C10=  0.97           H23-N7-C6-C5=355.98           
H23-N7-C6-C10=176.45          C9-C8-N7-C6=359.27            C9-C8-N7-H23=183.78           C12-C8-N7-C6=180.34           
C12-C8-N7-H23=  4.85          C10-C9-C8-N7=  0.19           C10-C9-C8-C12=179.02          H24-C9-C8-N7=181.87           
H24-C9-C8-C12=  0.70          C9-C10-C6-C5=179.59           C9-C10-C6-N7=359.17           C11-C10-C6-C5=359.62          
C11-C10-C6-N7=179.20          C6-C10-C9-C8=  0.39           C6-C10-C9-H24=178.72          C11-C10-C9-C8=180.35          
C11-C10-C9-H24=358.68         
           -------------------------------------------------
          |                Final Singlepoint                |
           -------------------------------------------------

          ...................................................
          :                      SETUP                      :
          :.................................................:
          :  # basis functions                  81          :
          :  # atomic orbitals                  81          :
          :  # shells                           47          :
          :  # electrons                        84          :
          :  max. iterations                   250          :
          :  Hamiltonian                  GFN2-xTB          :
          :  restarted?                      false          :
          :  GBSA solvation                   true          :
          :  PC potential                    false          :
          :  electronic temp.          300.0000000     K    :
          :  accuracy                    1.0000000          :
          :  -> integral cutoff          0.2500000E+02      :
          :  -> integral neglect         0.1000000E-07      :
          :  -> SCF convergence          0.1000000E-05 Eh   :
          :  -> wf. convergence          0.1000000E-03 e    :
          :  Broyden damping             0.4000000          :
          :  net charge                          0          :
          :  unpaired electrons                  0          :
          ...................................................

 iter      E             dE          RMSdq      gap      omega  full diag
   1    -46.5395120 -0.465395E+02  0.710E-05    2.96       0.0  T
   2    -46.5395120 -0.113900E-10  0.450E-05    2.96     405.9  T
   3    -46.5395120 -0.765965E-11  0.290E-05    2.96     629.2  T

   *** convergence criteria satisfied after 3 iterations ***

         #    Occupation            Energy/Eh            Energy/eV
      -------------------------------------------------------------
         1        2.0000           -0.7045886             -19.1728
       ...           ...                  ...                  ...
        36        2.0000           -0.4192706             -11.4089
        37        2.0000           -0.4156943             -11.3116
        38        2.0000           -0.4125779             -11.2268
        39        2.0000           -0.4043844             -11.0039
        40        2.0000           -0.4036061             -10.9827
        41        2.0000           -0.3590075              -9.7691
        42        2.0000           -0.3572031              -9.7200 (HOMO)
        43                         -0.2485613              -6.7637 (LUMO)
        44                         -0.2213374              -6.0229
        45                         -0.2061652              -5.6100
        46                         -0.1856771              -5.0525
        47                         -0.1450621              -3.9473
       ...                                ...                  ...
        81                          0.7318363              19.9143
      -------------------------------------------------------------
                  HL-Gap            0.1086418 Eh            2.9563 eV
             Fermi-level           -0.3028822 Eh           -8.2418 eV

 SCC (total)                   0 d,  0 h,  0 min,  0.018 sec
 SCC setup                      ...        0 min,  0.001 sec (  3.640%)
 Dispersion                     ...        0 min,  0.000 sec (  1.273%)
 classical contributions        ...        0 min,  0.000 sec (  0.317%)
 integral evaluation            ...        0 min,  0.003 sec ( 18.924%)
 iterations                     ...        0 min,  0.004 sec ( 20.485%)
 molecular gradient             ...        0 min,  0.010 sec ( 53.459%)
 printout                       ...        0 min,  0.000 sec (  1.817%)

         :::::::::::::::::::::::::::::::::::::::::::::::::::::
         ::                     SUMMARY                     ::
         :::::::::::::::::::::::::::::::::::::::::::::::::::::
         :: total energy             -45.759576727469 Eh    ::
         :: total w/o Gsasa/hb       -45.741451421786 Eh    ::
         :: gradient norm              0.000191895027 Eh/a0 ::
         :: HOMO-LUMO gap              2.956292727911 eV    ::
         ::.................................................::
         :: SCC energy               -46.539777157699 Eh    ::
         :: -> isotropic ES            0.023134478841 Eh    ::
         :: -> anisotropic ES          0.006977234538 Eh    ::
         :: -> anisotropic XC          0.020962779872 Eh    ::
         :: -> dispersion             -0.030467415419 Eh    ::
         :: -> Gsolv                  -0.020032375012 Eh    ::
         ::    -> Gelec               -0.001907069330 Eh    ::
         ::    -> Gsasa               -0.022494695427 Eh    ::
         ::    -> Ghb                 -0.000829265006 Eh    ::
         ::    -> Gshift               0.005198654751 Eh    ::
         :: repulsion energy           0.780200430230 Eh    ::
         :: add. restraining           0.000000000000 Eh    ::
         :: total charge              -0.000000000000 e     ::
         :::::::::::::::::::::::::::::::::::::::::::::::::::::

           -------------------------------------------------
          |                Property Printout                |
           -------------------------------------------------

    * Orbital Energies and Occupations

         #    Occupation            Energy/Eh            Energy/eV
      -------------------------------------------------------------
         1        2.0000           -0.7045886             -19.1728
       ...           ...                  ...                  ...
        30        2.0000           -0.4628449             -12.5947
        31        2.0000           -0.4593899             -12.5006
        32        2.0000           -0.4558856             -12.4053
        33        2.0000           -0.4417362             -12.0203
        34        2.0000           -0.4303244             -11.7097
        35        2.0000           -0.4235962             -11.5266
        36        2.0000           -0.4192706             -11.4089
        37        2.0000           -0.4156943             -11.3116
        38        2.0000           -0.4125779             -11.2268
        39        2.0000           -0.4043844             -11.0039
        40        2.0000           -0.4036061             -10.9827
        41        2.0000           -0.3590075              -9.7691
        42        2.0000           -0.3572031              -9.7200 (HOMO)
        43                         -0.2485613              -6.7637 (LUMO)
        44                         -0.2213374              -6.0229
        45                         -0.2061652              -5.6100
        46                         -0.1856771              -5.0525
        47                         -0.1450621              -3.9473
        48                         -0.0781716              -2.1272
        49                         -0.0639490              -1.7401
        50                          0.0226917               0.6175
        51                          0.0394612               1.0738
        52                          0.1033781               2.8131
        53                          0.1225107               3.3337
       ...                                ...                  ...
        81                          0.7318363              19.9143
      -------------------------------------------------------------
                  HL-Gap            0.1086418 Eh            2.9563 eV
             Fermi-level           -0.3028822 Eh           -8.2418 eV

     #   Z          covCN         q      C6AA      α(0)
     1   6 C        3.642     0.035    20.331     6.483
     2   8 O        1.705    -0.296    18.915     5.872
     3   6 C        2.864     0.128    25.193     8.227
     4   6 C        2.925    -0.062    29.548     8.914
     5   6 C        2.907    -0.056    29.380     8.888
     6   6 C        3.084     0.038    27.050     8.526
     7   7 N        2.784    -0.114    23.482     7.197
     8   6 C        3.071     0.042    26.984     8.517
     9   6 C        3.018    -0.080    29.981     8.982
    10   6 C        3.104    -0.013    28.206     8.702
    11   6 C        2.909    -0.080    29.989     8.980
    12   6 C        2.970     0.005    27.896     8.664
    13   6 C        2.924    -0.039    28.970     8.827
    14   6 C        2.918    -0.032    28.790     8.799
    15   6 C        2.919    -0.034    28.847     8.808
    16   6 C        2.918    -0.031    28.767     8.795
    17   6 C        2.926    -0.036    28.895     8.815
    18   1 H        0.924     0.041     2.437     2.441
    19   1 H        0.924     0.041     2.436     2.441
    20   1 H        0.925     0.064     2.154     2.295
    21   1 H        0.926     0.041     2.438     2.442
    22   1 H        0.926     0.035     2.514     2.480
    23   1 H        0.860     0.179     1.218     1.729
    24   1 H        0.926     0.026     2.647     2.544
    25   1 H        0.926     0.031     2.565     2.505
    26   1 H        0.926     0.031     2.576     2.510
    27   1 H        0.926     0.033     2.548     2.496
    28   1 H        0.926     0.032     2.557     2.501
    29   1 H        0.926     0.033     2.544     2.494
    30   1 H        0.926     0.036     2.502     2.474

 Mol. C6AA /au·bohr⁶  :      11730.046040
 Mol. C8AA /au·bohr⁸  :     288688.429861
 Mol. α(0) /au        :        173.345834


Wiberg/Mayer (AO) data.
largest (>0.10) Wiberg bond orders for each atom

 ---------------------------------------------------------------------------
     #   Z sym  total        # sym  WBO       # sym  WBO       # sym  WBO
 ---------------------------------------------------------------------------
     1   6 C    3.946 --     2 O    0.986    20 H    0.979    19 H    0.977
                            18 H    0.977
     2   8 O    2.194 --     3 C    1.037     1 C    0.986
     3   6 C    3.928 --    11 C    1.452     4 C    1.292     2 O    1.037
     4   6 C    3.974 --     5 C    1.513     3 C    1.292    21 H    0.969
     5   6 C    3.986 --     4 C    1.513     6 C    1.327    22 H    0.968
                            11 C    0.104
     6   6 C    3.956 --     5 C    1.327    10 C    1.241     7 N    1.183
     7   7 N    3.537 --     6 C    1.183     8 C    1.175    23 H    0.936
     8   6 C    3.953 --     9 C    1.505     7 N    1.175    12 C    1.084
     9   6 C    3.976 --     8 C    1.505    10 C    1.258    24 H    0.973
    10   6 C    3.985 --    11 C    1.305     9 C    1.258     6 C    1.241
    11   6 C    3.976 --     3 C    1.452    10 C    1.305    25 H    0.965
                             5 C    0.104
    12   6 C    3.989 --    13 C    1.374    17 C    1.370     8 C    1.084
                            15 C    0.101
    13   6 C    3.983 --    14 C    1.456    12 C    1.374    26 H    0.967
                            16 C    0.105
    14   6 C    3.992 --    13 C    1.456    15 C    1.433    27 H    0.971
                            17 C    0.106
    15   6 C    3.980 --    14 C    1.433    16 C    1.428    28 H    0.972
                            12 C    0.101
    16   6 C    3.992 --    17 C    1.461    15 C    1.428    29 H    0.971
                            13 C    0.105
    17   6 C    3.983 --    16 C    1.461    12 C    1.370    30 H    0.969
                            14 C    0.106
    18   1 H    0.998 --     1 C    0.977
    19   1 H    0.998 --     1 C    0.977
    20   1 H    0.995 --     1 C    0.979
    21   1 H    0.998 --     4 C    0.969
    22   1 H    0.998 --     5 C    0.968
    23   1 H    0.967 --     7 N    0.936
    24   1 H    0.999 --     9 C    0.973
    25   1 H    0.999 --    11 C    0.965
    26   1 H    0.999 --    13 C    0.967
    27   1 H    0.998 --    14 C    0.971
    28   1 H    0.999 --    15 C    0.972
    29   1 H    0.998 --    16 C    0.971
    30   1 H    0.999 --    17 C    0.969
 ---------------------------------------------------------------------------

Topologies differ in total number of bonds
Writing topology from bond orders to xtbtopo.mol

molecular dipole:
                 x           y           z       tot (Debye)
 q only:        0.680      -0.081       0.019
   full:        0.768      -0.095       0.017       1.968
molecular quadrupole (traceless):
                xx          xy          yy          xz          yz          zz
 q only:       -2.196      -8.159       4.593      -2.494       3.022      -2.396
  q+dip:       -0.581      -9.565       6.845      -3.067       7.629      -6.264
   full:       -2.876      -9.916       6.367      -3.162       4.722      -3.492

           -------------------------------------------------
          |                Geometry Summary                 |
           -------------------------------------------------

      molecular mass/u    :      223.2703764
   center of mass at/Å    :       -0.0095928      -0.1224643      -0.0373905
  moments of inertia/u·Å² :        0.2914387E+03   0.2542813E+04   0.2809819E+04
rotational constants/cm⁻¹ :        0.5784281E-01   0.6629521E-02   0.5999544E-02

 * 31 selected distances

     #   Z          #   Z                                           value/Å
     1   6 C        2   8 O                                       1.4080974
     2   8 O        3   6 C                                       1.3736957
     3   6 C        4   6 C                                       1.4095555
     4   6 C        5   6 C                                       1.3744325
     5   6 C        6   6 C                                       1.3901494
     6   6 C        7   7 N                                       1.3638449
     7   7 N        8   6 C                                       1.3741302
     8   6 C        9   6 C                                       1.3765274
     6   6 C       10   6 C                                       1.4152408
     9   6 C       10   6 C                                       1.4164454 (max)
     3   6 C       11   6 C                                       1.3797539
    10   6 C       11   6 C                                       1.3993120
    12   6 C       13   6 C                                       1.3967421
    13   6 C       14   6 C                                       1.3822478
    14   6 C       15   6 C                                       1.3852015
    15   6 C       16   6 C                                       1.3861130
    12   6 C       17   6 C                                       1.3968427
    16   6 C       17   6 C                                       1.3812476
     1   6 C       18   1 H                                       1.0950787
     1   6 C       19   1 H                                       1.0950351
     1   6 C       20   1 H                                       1.0889515
     4   6 C       21   1 H                                       1.0787267
     5   6 C       22   1 H                                       1.0796465
     7   7 N       23   1 H                                       1.0055043 (min)
     9   6 C       24   1 H                                       1.0719678
    11   6 C       25   1 H                                       1.0783352
    13   6 C       26   1 H                                       1.0804298
    14   6 C       27   1 H                                       1.0805560
    15   6 C       28   1 H                                       1.0800297
    16   6 C       29   1 H                                       1.0805613
    17   6 C       30   1 H                                       1.0791571

 * 5 distinct bonds (by element types)

   Z      Z             #   av. dist./Å        max./Å        min./Å
   1 H    6 C          12     1.0823730     1.0950787     1.0719678
   6 C    6 C          14     1.3921294     1.4164454     1.3744325
   1 H    7 N           1     1.0055043     1.0055043     1.0055043
   6 C    7 N           2     1.3689875     1.3741302     1.3638449
   6 C    8 O           2     1.3908965     1.4080974     1.3736957


optimized geometry written to: xtbopt.xyz


           -------------------------------------------------
          | TOTAL ENERGY              -45.759576727469 Eh   |
          | GRADIENT NORM               0.000191895027 Eh/α |
          | HOMO-LUMO GAP               2.956292727911 eV   |
           -------------------------------------------------

------------------------------------------------------------------------
 * finished run on 2026/09/27 at 16:06:26.577     
------------------------------------------------------------------------
 total:
 * wall-time:     0 d,  0 h,  0 min,  0.595 sec
 *  cpu-time:     0 d,  0 h,  0 min,  0.016 sec
 * ratio c/w:     0.026 speedup
 SCF:
 * wall-time:     0 d,  0 h,  0 min,  0.048 sec
 *  cpu-time:     0 d,  0 h,  0 min,  0.000 sec
 * ratio c/w:     0.000 speedup
 ANC optimizer:
 * wall-time:     0 d,  0 h,  0 min,  0.498 sec
 *  cpu-time:     0 d,  0 h,  0 min,  0.016 sec
 * ratio c/w:     0.031 speedup

