30
 energy: -45.759576727469 gnorm: 0.000191895027 xtb: 6.7.1 (edcfbbe)
C           -5.22705158541105        1.40069862503283        0.29293115619746
O           -4.85790928219733        0.10148920365474       -0.10522307155784
C           -3.52019872186588       -0.20634212499994       -0.15823043889436
C           -3.24442757552535       -1.52803743370661       -0.56309839484432
C           -1.95697260159953       -1.99679727430181       -0.67167217723940
C           -0.92145155063218       -1.12091770869112       -0.36663746019905
N            0.43146574433703       -1.29098205207133       -0.39430235130855
C            1.04774650023406       -0.13002266452743        0.00645299867584
C            0.08007765555733        0.80948944195762        0.28170097182083
C           -1.18042828270305        0.20747733498236        0.04713027834937
C           -2.49791258658919        0.66776805841662        0.14931290303958
C            2.49385455477595       -0.00378067125792        0.07191737741442
C            3.33068441948422       -0.82858002954188       -0.68327130499768
C            4.70453568597738       -0.69274352454103       -0.61479001418248
C            5.27263346666147        0.26667447656374        0.20713753439491
C            4.45340417320673        1.09473129913917        0.95846586038136
C            3.08008250122146        0.96221130542849        0.89311502595578
H           -4.83201303883341        2.15755434262687       -0.39286113332868
H           -4.88731066735322        1.61944264113480        1.31068793497289
H           -6.31544917370837        1.41899635933489        0.26341849895008
H           -4.08628156037337       -2.16378112600078       -0.78840481154847
H           -1.76241631319087       -3.01159555915306       -0.98467174317136
H            0.90386717990727       -2.15351916833475       -0.60383838631966
H            0.24635793198357        1.82277583494547        0.58946108221461
H           -2.68295844115545        1.68305455869623        0.46197562312297
H            2.90730648056092       -1.56637613060731       -1.34940671966077
H            5.33642859029369       -1.33674712388794       -1.20940897862100
H            6.34637009924957        0.37032969260612        0.26013879367435
H            4.88934425287758        1.84573617579742        1.60155245564792
H            2.44862014480993        1.60179224130545        1.49041849106140
