27

C     -4.647861    0.299560   -0.377532
C     -3.713277    1.123919   -0.991077
C     -2.346476    0.909156   -0.781339
C     -1.867470   -0.130582    0.043871
C     -2.843854   -0.946219    0.649315
C     -4.213931   -0.735499    0.442630
C     -0.404254   -0.326652    0.242031
C      0.146744   -1.327587    1.039105
C      1.532210   -1.427402    1.159837
C      2.356077   -0.526275    0.483151
C      3.758461   -0.586771    0.573765
C      4.547199    0.330756   -0.116789
C      3.939012    1.307517   -0.896800
C      2.544264    1.361319   -0.981958
C      1.734670    0.459239   -0.304091
N      0.397649    0.552397   -0.418129
H     -5.709831    0.463226   -0.538002
H     -4.039048    1.936728   -1.634664
H     -1.641528    1.574867   -1.278344
H     -2.566373   -1.769890    1.299892
H     -4.940007   -1.384413    0.925896
H     -0.468383   -2.039640    1.574899
H      1.957577   -2.209831    1.782747
H      4.240171   -1.348437    1.182251
H      5.630736    0.283288   -0.046196
H      4.542707    2.029371   -1.440611
H      2.074815    2.127854   -1.593861
