      -----------------------------------------------------------      
     |                   =====================                   |     
     |                           x T B                           |     
     |                   =====================                   |     
     |                         S. Grimme                         |     
     |          Mulliken Center for Theoretical Chemistry        |     
     |                    University of Bonn                     |     
      -----------------------------------------------------------      

   * xtb version 6.7.1 (edcfbbe) compiled by 'VssAdministrator@runnervm171ch' on 2026-06-10

   xtb is free software: you can redistribute it and/or modify it under
   the terms of the GNU Lesser General Public License as published by
   the Free Software Foundation, either version 3 of the License, or
   (at your option) any later version.
   
   xtb is distributed in the hope that it will be useful,
   but WITHOUT ANY WARRANTY; without even the implied warranty of
   MERCHANTABILITY or FITNESS FOR A PARTICULAR PURPOSE.  See the
   GNU Lesser General Public License for more details.
   
   Cite this work as:
   * C. Bannwarth, E. Caldeweyher, S. Ehlert, A. Hansen, P. Pracht,
     J. Seibert, S. Spicher, S. Grimme, WIREs Comput. Mol. Sci., 2020, 11,
     e01493. DOI: 10.1002/wcms.1493
   
   for GFN2-xTB:
   * C. Bannwarth, S. Ehlert and S. Grimme., J. Chem. Theory Comput., 2019,
     15, 1652-1671. DOI: 10.1021/acs.jctc.8b01176
   for GFN1-xTB:
   * S. Grimme, C. Bannwarth, P. Shushkov, J. Chem. Theory Comput., 2017,
     13, 1989-2009. DOI: 10.1021/acs.jctc.7b00118
   for GFN0-xTB:
   * P. Pracht, E. Caldeweyher, S. Ehlert, S. Grimme, ChemRxiv, 2019, preprint.
     DOI: 10.26434/chemrxiv.8326202.v1
   for GFN-FF:
   * S. Spicher and S. Grimme, Angew. Chem. Int. Ed., 2020, 59, 15665-15673.
     DOI: 10.1002/anie.202004239
   
   for ALPB and GBSA implicit solvation:
   * S. Ehlert, M. Stahn, S. Spicher, S. Grimme, J. Chem. Theory Comput.,
     2021, 17, 4250-4261. DOI: 10.1021/acs.jctc.1c00471
   
   for ddCOSMO and CPCM-X implicit solvation:
   * M. Stahn, S. Ehlert, S. Grimme, J. Phys. Chem. A,
     2023, XX, XXXX-XXXX. DOI: 10.1021/acs.jpca.3c04382
   
   for DFT-D4:
   * E. Caldeweyher, C. Bannwarth and S. Grimme, J. Chem. Phys., 2017,
     147, 034112. DOI: 10.1063/1.4993215
   * E. Caldeweyher, S. Ehlert, A. Hansen, H. Neugebauer, S. Spicher,
     C. Bannwarth and S. Grimme, J. Chem. Phys., 2019, 150, 154122.
     DOI: 10.1063/1.5090222
   * E. Caldeweyher, J.-M. Mewes, S. Ehlert and S. Grimme, Phys. Chem. Chem. Phys.
     2020, 22, 8499-8512. DOI: 10.1039/D0CP00502A
   
   for sTDA-xTB:
   * S. Grimme and C. Bannwarth, J. Chem. Phys., 2016, 145, 054103.
     DOI: 10.1063/1.4959605
   
   in the mass-spec context:
   * V. Asgeirsson, C. Bauer and S. Grimme, Chem. Sci., 2017, 8, 4879.
     DOI: 10.1039/c7sc00601b
   * J. Koopman and S. Grimme, ACS Omega 2019, 4, 12, 15120-15133.
     DOI: 10.1021/acsomega.9b02011
   
   for metadynamics refer to:
   * S. Grimme, J. Chem. Theory Comput., 2019, 155, 2847-2862
     DOI: 10.1021/acs.jctc.9b00143
   
   for SPH calculations refer to:
   * S. Spicher and S. Grimme, J. Chem. Theory Comput., 2021, 17, 1701-1714
     DOI: 10.1021/acs.jctc.0c01306
   
   for ONIOM refer to:
   * C. Plett, A. Katbashev, S. Ehlert, S. Grimme, M. Bursch,
     Phys. Chem. Chem. Phys., 2023, 25, 17860-17868. DOI: 10.1039/D3CP02178E
   
   for DIPRO refer to:
   * J. Kohn, N. Gildemeister, S. Grimme, D. Fazzi, A. Hansen,
     J. Chem. Phys., 2023, just accepted.
   
   for PTB refer to:
   * S. Grimme, M. Mueller, A. Hansen, J. Chem. Phys., 2023, 158, 124111.
     DOI: 10.1063/5.0137838
   
   with help from (in alphabetical order)
   P. Atkinson, C. Bannwarth, F. Bohle, G. Brandenburg, E. Caldeweyher
   M. Checinski, S. Dohm, S. Ehlert, S. Ehrlich, I. Gerasimov, C. Hölzer
   A. Katbashev, J. Kohn, J. Koopman, C. Lavigne, S. Lehtola, F. März, M. Müller,
   F. Musil, H. Neugebauer, J. Pisarek, C. Plett, P. Pracht, F. Pultar,
   J. Seibert, P. Shushkov, S. Spicher, M. Stahn, M. Steiner, T. Strunk,
   J. Stückrath, T. Rose, and J. Unsleber
   
 * started run on 2026/09/27 at 21:41:08.280     
   ID    Z sym.   atoms
    1    6 C      1-15
    2    7 N      16
    3    1 H      17-27

           -------------------------------------------------
          |                Calculation Setup                |
           -------------------------------------------------

          program call               : xtb input.xyz --gfn 2 --alpb acetonitrile --chrg 0 --uhf 0 --opt tight --json --parallel 1 --norestart
          coordinate file            : input.xyz
          omp threads                :                     1


           -------------------------------------------------
          |                 G F N 2 - x T B                 |
           -------------------------------------------------

        Reference                      10.1021/acs.jctc.8b01176
      * Hamiltonian:
        H0-scaling (s, p, d)           1.850000    2.230000    2.230000
        zeta-weighting                 0.500000
      * Dispersion:
        s8                             2.700000
        a1                             0.520000
        a2                             5.000000
        s9                             5.000000
      * Repulsion:
        kExp                           1.500000    1.000000
        rExp                           1.000000
      * Coulomb:
        alpha                          2.000000
        third order                    shell-resolved
        anisotropic                    true
        a3                             3.000000
        a5                             4.000000
        cn-shift                       1.200000
        cn-exp                         4.000000
        max-rad                        5.000000

      * Solvation model:               ALPB
        Solvent                        acetonitrile
        Parameter file                 internal GFN2-xTB/ALPB
        Dielectric constant                3.7500E+01
        Reference state                gsolv [1 M gas/solution]
        Free energy shift                  5.1987E-03 Eh       3.2622E+00 kcal/mol
        Temperature                        2.9815E+02 K
        Density                            7.8600E-01 kg/L
        Solvent mass                       4.1050E+01 g/mol
        Interaction kernel             P16
        Born radius scaling (c1)           1.7214E+00
        Born radii integrator          GBOBC
        Born offset                        0.0000E+00 a0       0.0000E+00 AA
        H-bond correction              true
        Ion screening                  false
        Surface tension                    1.0000E-05 Eh       1.5569E+01 dyn/cm
        Grid points                               230 per atom

          ...................................................
          :                      SETUP                      :
          :.................................................:
          :  # basis functions                  75          :
          :  # atomic orbitals                  75          :
          :  # shells                           43          :
          :  # electrons                        76          :
          :  max. iterations                   250          :
          :  Hamiltonian                  GFN2-xTB          :
          :  restarted?                      false          :
          :  GBSA solvation                   true          :
          :  PC potential                    false          :
          :  electronic temp.          300.0000000     K    :
          :  accuracy                    1.0000000          :
          :  -> integral cutoff          0.2500000E+02      :
          :  -> integral neglect         0.1000000E-07      :
          :  -> SCF convergence          0.1000000E-05 Eh   :
          :  -> wf. convergence          0.1000000E-03 e    :
          :  Broyden damping             0.4000000          :
          :  net charge                          0          :
          :  unpaired electrons                  0          :
          ...................................................

 iter      E             dE          RMSdq      gap      omega  full diag
   1    -41.3515893 -0.413516E+02  0.420E+00    2.53       0.0  T
   2    -41.3689189 -0.173296E-01  0.249E+00    2.25       1.0  T
   3    -41.3460622  0.228567E-01  0.111E+00    2.30       1.0  T
   4    -41.3753896 -0.293274E-01  0.234E-01    2.06       1.0  T
   5    -41.3760652 -0.675624E-03  0.125E-01    2.10       1.0  T
   6    -41.3763316 -0.266440E-03  0.322E-02    2.10       1.0  T
   7    -41.3763388 -0.719025E-05  0.186E-02    2.10       1.0  T
   8    -41.3763406 -0.178711E-05  0.410E-03    2.10       4.7  T
   9    -41.3763409 -0.236494E-06  0.194E-03    2.10       9.9  T
  10    -41.3763409 -0.370813E-07  0.112E-03    2.10      17.2  T
  11    -41.3763409 -0.650292E-08  0.548E-04    2.10      35.1  T
  12    -41.3763409 -0.223989E-08  0.150E-04    2.10     128.6  T

   *** convergence criteria satisfied after 12 iterations ***

         #    Occupation            Energy/Eh            Energy/eV
      -------------------------------------------------------------
         1        2.0000           -0.6583575             -17.9148
       ...           ...                  ...                  ...
        32        2.0000           -0.4218721             -11.4797
        33        2.0000           -0.4202863             -11.4366
        34        2.0000           -0.4165273             -11.3343
        35        2.0000           -0.3998969             -10.8817
        36        2.0000           -0.3934200             -10.7055
        37        2.0000           -0.3825266             -10.4091
        38        2.0000           -0.3610704              -9.8252 (HOMO)
        39                         -0.2839540              -7.7268 (LUMO)
        40                         -0.2485261              -6.7627
        41                         -0.2245318              -6.1098
        42                         -0.2102140              -5.7202
        43                         -0.1970810              -5.3628
       ...                                ...                  ...
        75                          0.6909765              18.8024
      -------------------------------------------------------------
                  HL-Gap            0.0771164 Eh            2.0984 eV
             Fermi-level           -0.3225122 Eh           -8.7760 eV

 SCC (total)                   0 d,  0 h,  0 min,  0.027 sec
 SCC setup                      ...        0 min,  0.001 sec (  2.865%)
 Dispersion                     ...        0 min,  0.000 sec (  0.945%)
 classical contributions        ...        0 min,  0.000 sec (  0.219%)
 integral evaluation            ...        0 min,  0.003 sec ( 11.646%)
 iterations                     ...        0 min,  0.013 sec ( 47.308%)
 molecular gradient             ...        0 min,  0.009 sec ( 35.421%)
 printout                       ...        0 min,  0.000 sec (  1.529%)

         :::::::::::::::::::::::::::::::::::::::::::::::::::::
         ::                     SUMMARY                     ::
         :::::::::::::::::::::::::::::::::::::::::::::::::::::
         :: total energy             -40.643298477493 Eh    ::
         :: total w/o Gsasa/hb       -40.626621254302 Eh    ::
         :: gradient norm              0.092745647884 Eh/a0 ::
         :: HOMO-LUMO gap              2.098442990139 eV    ::
         ::.................................................::
         :: SCC energy               -41.376529297768 Eh    ::
         :: -> isotropic ES            0.010764110863 Eh    ::
         :: -> anisotropic ES          0.004870074082 Eh    ::
         :: -> anisotropic XC          0.031668774717 Eh    ::
         :: -> dispersion             -0.028516301601 Eh    ::
         :: -> Gsolv                  -0.017141878323 Eh    ::
         ::    -> Gelec               -0.000464655132 Eh    ::
         ::    -> Gsasa               -0.021540969739 Eh    ::
         ::    -> Ghb                 -0.000334908203 Eh    ::
         ::    -> Gshift               0.005198654751 Eh    ::
         :: repulsion energy           0.733230820276 Eh    ::
         :: add. restraining           0.000000000000 Eh    ::
         :: total charge              -0.000000000000 e     ::
         :::::::::::::::::::::::::::::::::::::::::::::::::::::

      ----------------------------------------------------------- 
     |                   =====================                   |
     |                        A N C O P T                        |
     |                   =====================                   |
     |               Approximate Normal Coordinate               |
     |                Rational Function Optimizer                |
      ----------------------------------------------------------- 
      ----------------------------------------------------------- 
     |                   =====================                   |
     |                        A N C O P T                        |
     |                   =====================                   |
     |               Approximate Normal Coordinate               |
     |                Rational Function Optimizer                |
      ----------------------------------------------------------- 

          ...................................................
          :                      SETUP                      :
          :.................................................:
          :   optimization level             tight          :
          :   max. optcycles                   200          :
          :   ANC micro-cycles                  20          :
          :   degrees of freedom                75          :
          :.................................................:
          :   RF solver                   davidson          :
          :   write xtbopt.log                true          :
          :   linear?                        false          :
          :   energy convergence         0.1000000E-05 Eh   :
          :   grad. convergence          0.8000000E-03 Eh/α :
          :   maxmium RF displ.          1.0000000          :
          :   Hlow (freq-cutoff)         0.1000000E-01      :
          :   Hmax (freq-cutoff)         5.0000000          :
          :   S6 in model hess.         20.0000000          :
          ...................................................

generating ANC from exact Hessian ...
Using Lindh-Hessian (1995)
 Shifting diagonal of input Hessian by    9.0260418688245369E-003
 Lowest  eigenvalues of input Hessian
    0.000000    0.000000    0.000000    0.000000    0.000000    0.000000
    0.010000    0.010372    0.011507    0.014010    0.016227    0.022096
    0.022814    0.025585    0.028693    0.029261    0.030108    0.032543
 Highest eigenvalues
    1.860626    1.918218    1.951569    1.975503    2.062639    2.172758


........................................................................
.............................. CYCLE    1 ..............................
........................................................................

 iter      E             dE          RMSdq      gap      omega  full diag
   1    -41.3763409 -0.413763E+02  0.829E-05    2.10       0.0  T
   2    -41.3763409 -0.211884E-10  0.508E-05    2.10     378.8  T
   3    -41.3763409 -0.125056E-11  0.314E-05    2.10     612.9  T
     SCC iter.                  ...        0 min,  0.004 sec
     gradient                   ...        0 min,  0.010 sec
 * total energy  :   -40.6432985 Eh     change       -0.1579750E-09 Eh
   gradient norm :     0.0927461 Eh/α   predicted     0.0000000E+00 (-100.00%)
   displ. norm   :     0.2396355 α      lambda       -0.8557553E-02
   maximum displ.:     0.2006991 α      in ANC's #9, #13, #29, ...

........................................................................
.............................. CYCLE    2 ..............................
........................................................................

 iter      E             dE          RMSdq      gap      omega  full diag
   1    -41.4061267 -0.414061E+02  0.136E-01    2.18       0.0  T
   2    -41.4061859 -0.591999E-04  0.939E-02    2.20       1.0  T
   3    -41.4061809  0.502133E-05  0.427E-02    2.19       1.0  T
   4    -41.4062078 -0.268900E-04  0.114E-02    2.20       1.7  T
   5    -41.4062113 -0.352143E-05  0.281E-03    2.20       6.9  T
   6    -41.4062114 -0.465913E-07  0.141E-03    2.20      13.7  T
   7    -41.4062114 -0.305294E-08  0.561E-04    2.20      34.3  T
   8    -41.4062114 -0.502298E-08  0.164E-04    2.20     117.1  T
     SCC iter.                  ...        0 min,  0.008 sec
     gradient                   ...        0 min,  0.010 sec
 * total energy  :   -40.6492446 Eh     change       -0.5946092E-02 Eh
   gradient norm :     0.0392201 Eh/α   predicted    -0.4525659E-02 ( -23.89%)
   displ. norm   :     0.1915237 α      lambda       -0.2433751E-02
   maximum displ.:     0.1725677 α      in ANC's #9, #13, #15, ...

........................................................................
.............................. CYCLE    3 ..............................
........................................................................

 iter      E             dE          RMSdq      gap      omega  full diag
   1    -41.4218065 -0.414218E+02  0.101E-01    2.24       0.0  T
   2    -41.4218381 -0.316241E-04  0.687E-02    2.26       1.0  T
   3    -41.4218334  0.475130E-05  0.307E-02    2.26       1.0  T
   4    -41.4218491 -0.157414E-04  0.801E-03    2.26       2.4  T
   5    -41.4218508 -0.168523E-05  0.199E-03    2.26       9.7  T
   6    -41.4218508 -0.275332E-07  0.100E-03    2.26      19.2  T
   7    -41.4218508 -0.193089E-08  0.365E-04    2.26      52.7  T
   8    -41.4218508 -0.186611E-08  0.127E-04    2.26     151.7  T
     SCC iter.                  ...        0 min,  0.008 sec
     gradient                   ...        0 min,  0.010 sec
 * total energy  :   -40.6505387 Eh     change       -0.1294178E-02 Eh
   gradient norm :     0.0069316 Eh/α   predicted    -0.1261707E-02 (  -2.51%)
   displ. norm   :     0.0449925 α      lambda       -0.1111697E-03
   maximum displ.:     0.0293375 α      in ANC's #9, #3, #25, ...

........................................................................
.............................. CYCLE    4 ..............................
........................................................................

 iter      E             dE          RMSdq      gap      omega  full diag
   1    -41.4210851 -0.414211E+02  0.248E-02    2.26       0.0  T
   2    -41.4210853 -0.184404E-06  0.149E-02    2.26       1.3  T
   3    -41.4210848  0.465387E-06  0.407E-03    2.26       4.7  T
   4    -41.4210854 -0.555383E-06  0.667E-04    2.26      28.8  T
   5    -41.4210854 -0.547760E-08  0.323E-04    2.26      59.6  T
     SCC iter.                  ...        0 min,  0.006 sec
     gradient                   ...        0 min,  0.009 sec
 * total energy  :   -40.6506189 Eh     change       -0.8020098E-04 Eh
   gradient norm :     0.0037648 Eh/α   predicted    -0.5571472E-04 ( -30.53%)
   displ. norm   :     0.0483267 α      lambda       -0.5447178E-04
   maximum displ.:     0.0391359 α      in ANC's #3, #9, #25, ...

........................................................................
.............................. CYCLE    5 ..............................
........................................................................

 iter      E             dE          RMSdq      gap      omega  full diag
   1    -41.4202723 -0.414203E+02  0.222E-02    2.26       0.0  T
   2    -41.4202724 -0.113220E-06  0.132E-02    2.26       1.5  T
   3    -41.4202719  0.465414E-06  0.399E-03    2.26       4.8  T
   4    -41.4202725 -0.553312E-06  0.462E-04    2.26      41.7  T
   5    -41.4202725 -0.101468E-08  0.262E-04    2.26      73.4  T
     SCC iter.                  ...        0 min,  0.006 sec
     gradient                   ...        0 min,  0.009 sec
 * total energy  :   -40.6506494 Eh     change       -0.3048299E-04 Eh
   gradient norm :     0.0011045 Eh/α   predicted    -0.2732182E-04 ( -10.37%)
   displ. norm   :     0.0305937 α      lambda       -0.4756102E-05
   maximum displ.:     0.0293113 α      in ANC's #3, #1, #20, ...

........................................................................
.............................. CYCLE    6 ..............................
........................................................................

 iter      E             dE          RMSdq      gap      omega  full diag
   1    -41.4203428 -0.414203E+02  0.779E-03    2.26       0.0  T
   2    -41.4203428 -0.202206E-07  0.462E-03    2.26       4.2  T
   3    -41.4203428  0.499019E-07  0.152E-03    2.27      12.6  T
   4    -41.4203429 -0.611887E-07  0.196E-04    2.26      98.3  T
   5    -41.4203429 -0.446946E-09  0.985E-05    2.26     195.5  T
     SCC iter.                  ...        0 min,  0.005 sec
     gradient                   ...        0 min,  0.010 sec
 * total energy  :   -40.6506539 Eh     change       -0.4512807E-05 Eh
   gradient norm :     0.0006204 Eh/α   predicted    -0.2381788E-05 ( -47.22%)
   displ. norm   :     0.0158542 α      lambda       -0.1669213E-05
   maximum displ.:     0.0137397 α      in ANC's #3, #1, #9, ...

........................................................................
.............................. CYCLE    7 ..............................
........................................................................

 iter      E             dE          RMSdq      gap      omega  full diag
   1    -41.4204822 -0.414205E+02  0.488E-03    2.27       0.0  T
   2    -41.4204822 -0.441972E-08  0.289E-03    2.27       6.7  T
   3    -41.4204822  0.119068E-07  0.705E-04    2.27      27.3  T
   4    -41.4204822 -0.143145E-07  0.109E-04    2.27     177.2  T
     SCC iter.                  ...        0 min,  0.005 sec
     gradient                   ...        0 min,  0.010 sec
 * total energy  :   -40.6506556 Eh     change       -0.1666836E-05 Eh
   gradient norm :     0.0003405 Eh/α   predicted    -0.8422846E-06 ( -49.47%)
   displ. norm   :     0.0138641 α      lambda       -0.6504980E-06
   maximum displ.:     0.0107920 α      in ANC's #3, #1, #2, ...

........................................................................
.............................. CYCLE    8 ..............................
........................................................................

 iter      E             dE          RMSdq      gap      omega  full diag
   1    -41.4204375 -0.414204E+02  0.499E-03    2.26       0.0  T
   2    -41.4204375 -0.307583E-08  0.296E-03    2.26       6.5  T
   3    -41.4204375  0.143082E-07  0.722E-04    2.26      26.7  T
   4    -41.4204375 -0.164495E-07  0.981E-05    2.26     196.2  T
     SCC iter.                  ...        0 min,  0.004 sec
     gradient                   ...        0 min,  0.010 sec
 * total energy  :   -40.6506564 Eh     change       -0.7984659E-06 Eh
   gradient norm :     0.0002459 Eh/α   predicted    -0.3310033E-06 ( -58.55%)
   displ. norm   :     0.0209283 α      lambda       -0.6755348E-06
   maximum displ.:     0.0136597 α      in ANC's #3, #1, #2, ...

   *** GEOMETRY OPTIMIZATION CONVERGED AFTER 8 ITERATIONS ***

------------------------------------------------------------------------
 total energy gain   :        -0.0073579 Eh       -4.6172 kcal/mol
 total RMSD          :         0.0945464 a0        0.0500 Å
 total power (kW/mol):        -2.4147811 (step) -112.4295 (real)
------------------------------------------------------------------------

 ANCopt (total)                0 d,  0 h,  0 min,  0.172 sec
 optimizer setup                ...        0 min,  0.000 sec (  0.167%)
 model hessian                  ...        0 min,  0.004 sec (  2.173%)
 ANC generation                 ...        0 min,  0.001 sec (  0.526%)
 coordinate transformation      ...        0 min,  0.000 sec (  0.046%)
 single point calculation       ...        0 min,  0.163 sec ( 95.000%)
 optimization log               ...        0 min,  0.002 sec (  0.969%)
 hessian update                 ...        0 min,  0.000 sec (  0.091%)
 rational function              ...        0 min,  0.001 sec (  0.618%)

================
 final structure:
================
27
 xtb: 6.7.1 (edcfbbe)
C           -4.58748357971419        0.30235151610607       -0.37697791301809
C           -3.65144114980425        1.12079882428923       -0.99004008707220
C           -2.30329041774437        0.90818990016043       -0.78262425557889
C           -1.85611883844629       -0.12767806787652        0.04189206259363
C           -2.80893915363154       -0.94288101269714        0.65268069872293
C           -4.15936806244692       -0.72781021622779        0.44329592579160
C           -0.40628854188158       -0.30834602157344        0.22607781896292
C            0.13517063919576       -1.33621711796668        1.04099565943111
C            1.48969805265836       -1.44926542588443        1.17191212270677
C            2.33601395802536       -0.54528621757780        0.49604378151524
C            3.74140652400854       -0.58267705693489        0.57030643509097
C            4.49280760573367        0.33124156937410       -0.11613661899858
C            3.87213679830672        1.31631251401537       -0.90281352830901
C            2.50984569102917        1.37957282298442       -0.99648656486922
C            1.70544044083035        0.45098739863810       -0.29938950610987
N            0.37017589173961        0.54139728314672       -0.41145928979640
H           -5.64318339001108        0.46592058399663       -0.53693285247835
H           -3.97650151291643        1.92658211860565       -1.63205835571935
H           -1.56494855007244        1.53744414080767       -1.25347056383273
H           -2.51224428598534       -1.75447359834051        1.29889886678285
H           -4.88249156739972       -1.37024111304098        0.92510035533432
H           -0.51270150905615       -2.02643188069259        1.55637276300403
H            1.92614787308597       -2.22396861463398        1.78837031368323
H            4.21156916559461       -1.34398968076820        1.17733809530042
H            5.57107200403573        0.30201544601574       -0.05851884519078
H            4.48619898390290        2.02737847501486       -1.43620589460149
H            2.01731593096354        2.12907243105998       -1.59617362334505

 Bond Distances (Angstroems)
 ---------------------------
C1-C2=1.3863         C1-C6=1.3847         C1-H17=1.0802        C2-C1=1.3863         C2-C3=1.3805         C2-H18=1.0803        
C3-C2=1.3805         C3-C4=1.3974         C3-H19=1.0783        C4-C3=1.3974         C4-C5=1.3948         C4-C7=1.4726         
C5-C4=1.3948         C5-C6=1.3834         C5-H20=1.0790        C6-C1=1.3847         C6-C5=1.3834         C6-H21=1.0806        
C7-C4=1.4726         C7-C8=1.4191         C7-N16=1.3158        C8-C7=1.4191         C8-C9=1.3655         C8-H22=1.0778        
C9-C8=1.3655         C9-C10=1.4108        C9-H23=1.0820        C10-C9=1.4108        C10-C11=1.4079       C10-C15=1.4223       
C11-C10=1.4079       C11-C12=1.3679       C11-H24=1.0813       C12-C11=1.3679       C12-C13=1.4052       C12-H25=1.0802       
C13-C12=1.4052       C13-C14=1.3670       C13-H26=1.0804       C14-C13=1.3670       C14-C15=1.4125       C14-H27=1.0789       
C15-C10=1.4223       C15-C14=1.4125       C15-N16=1.3430       N16-C7=1.3158        N16-C15=1.3430       H17-C1=1.0802        
H18-C2=1.0803        H19-C3=1.0783        H20-C5=1.0790        H21-C6=1.0806        H22-C8=1.0778        H23-C9=1.0820        
H24-C11=1.0813       H25-C12=1.0802       H26-C13=1.0804       H27-C14=1.0789       
 C  H  Rav=1.0799 sigma=0.0012  Rmin=1.0778  Rmax=1.0820    11
 C  C  Rav=1.3986 sigma=0.0261  Rmin=1.3655  Rmax=1.4726    16
 N  C  Rav=1.3294 sigma=0.0136  Rmin=1.3158  Rmax=1.3430     2

 selected bond angles (degree)
 --------------------
C6-C1-C2=119.50                H17-C1-C2=120.33               H17-C1-C6=120.17               C3-C2-C1=120.13                
H18-C2-C1=120.00               H18-C2-C3=119.87               C4-C3-C2=121.02                H19-C3-C2=120.88               
H19-C3-C4=118.10               C5-C4-C3=118.23                C7-C4-C3=118.67                C7-C4-C5=123.10                
C6-C5-C4=120.64                H20-C5-C4=120.93               H20-C5-C6=118.42               C5-C6-C1=120.47                
H21-C6-C1=119.97               H21-C6-C5=119.56               C8-C7-C4=122.44                N16-C7-C4=116.18               
N16-C7-C8=121.39               C9-C8-C7=119.57                H22-C8-C7=120.60               H22-C8-C9=119.83               
C10-C9-C8=119.74               H23-C9-C8=120.93               H23-C9-C10=119.33              C11-C10-C9=123.82              
C15-C10-C9=116.80              C15-C10-C11=119.39             

 selected dihedral angles (degree)
 ---------------------------------
C3-C2-C1-C6=  0.00            C3-C2-C1-H17=179.99           H18-C2-C1-C6=179.97           H18-C2-C1-H17=359.96          
C4-C3-C2-C1=  0.03            C4-C3-C2-H18=180.06           H19-C3-C2-C1=180.00           H19-C3-C2-H18=  0.03          
C5-C4-C3-C2=359.94            C5-C4-C3-H19=179.97           C7-C4-C3-C2=179.95            C7-C4-C3-H19=  0.00           
C6-C5-C4-C3=  0.06            C6-C5-C4-C7=180.04            H20-C5-C4-C3=180.09           H20-C5-C4-C7=  0.07           
C5-C6-C1-C2=  0.00            C5-C6-C1-H17=180.01           H21-C6-C1-C2=179.99           H21-C6-C1-H17=  0.00          
C1-C6-C5-C4=359.97            C1-C6-C5-H20=179.94           H21-C6-C5-C4=179.98           H21-C6-C5-H20=359.95          
C8-C7-C4-C3=180.23            C8-C7-C4-C5=  0.24            N16-C7-C4-C3=  0.20           N16-C7-C4-C5=180.21           
C9-C8-C7-C4=180.08            C9-C8-C7-N16=  0.12           H22-C8-C7-C4=  0.06           H22-C8-C7-N16=180.10          
C10-C9-C8-C7=359.95           C10-C9-C8-H22=179.97          H23-C9-C8-C7=179.93           H23-C9-C8-H22=359.95          
C11-C10-C9-C8=179.98          C11-C10-C9-H23=  0.00         C15-C10-C9-C8=359.97          C15-C10-C9-H23=179.98         
           -------------------------------------------------
          |                Final Singlepoint                |
           -------------------------------------------------

          ...................................................
          :                      SETUP                      :
          :.................................................:
          :  # basis functions                  75          :
          :  # atomic orbitals                  75          :
          :  # shells                           43          :
          :  # electrons                        76          :
          :  max. iterations                   250          :
          :  Hamiltonian                  GFN2-xTB          :
          :  restarted?                      false          :
          :  GBSA solvation                   true          :
          :  PC potential                    false          :
          :  electronic temp.          300.0000000     K    :
          :  accuracy                    1.0000000          :
          :  -> integral cutoff          0.2500000E+02      :
          :  -> integral neglect         0.1000000E-07      :
          :  -> SCF convergence          0.1000000E-05 Eh   :
          :  -> wf. convergence          0.1000000E-03 e    :
          :  Broyden damping             0.4000000          :
          :  net charge                          0          :
          :  unpaired electrons                  0          :
          ...................................................

 iter      E             dE          RMSdq      gap      omega  full diag
   1    -41.4204375 -0.414204E+02  0.503E-05    2.26       0.0  T
   2    -41.4204375 -0.943601E-11  0.291E-05    2.26     661.0  T
   3    -41.4204375 -0.332534E-11  0.178E-05    2.26    1083.8  T

   *** convergence criteria satisfied after 3 iterations ***

         #    Occupation            Energy/Eh            Energy/eV
      -------------------------------------------------------------
         1        2.0000           -0.6582826             -17.9128
       ...           ...                  ...                  ...
        32        2.0000           -0.4211944             -11.4613
        33        2.0000           -0.4185272             -11.3887
        34        2.0000           -0.4164641             -11.3326
        35        2.0000           -0.4029510             -10.9649
        36        2.0000           -0.3948385             -10.7441
        37        2.0000           -0.3842211             -10.4552
        38        2.0000           -0.3602317              -9.8024 (HOMO)
        39                         -0.2770048              -7.5377 (LUMO)
        40                         -0.2479234              -6.7463
        41                         -0.2204286              -5.9982
        42                         -0.2106521              -5.7321
        43                         -0.1930987              -5.2545
       ...                                ...                  ...
        75                          0.7040250              19.1575
      -------------------------------------------------------------
                  HL-Gap            0.0832270 Eh            2.2647 eV
             Fermi-level           -0.3186183 Eh           -8.6700 eV

 SCC (total)                   0 d,  0 h,  0 min,  0.019 sec
 SCC setup                      ...        0 min,  0.001 sec (  5.050%)
 Dispersion                     ...        0 min,  0.000 sec (  1.409%)
 classical contributions        ...        0 min,  0.000 sec (  0.344%)
 integral evaluation            ...        0 min,  0.004 sec ( 18.598%)
 iterations                     ...        0 min,  0.004 sec ( 22.249%)
 molecular gradient             ...        0 min,  0.010 sec ( 50.706%)
 printout                       ...        0 min,  0.000 sec (  1.537%)

         :::::::::::::::::::::::::::::::::::::::::::::::::::::
         ::                     SUMMARY                     ::
         :::::::::::::::::::::::::::::::::::::::::::::::::::::
         :: total energy             -40.650656410037 Eh    ::
         :: total w/o Gsasa/hb       -40.634181243961 Eh    ::
         :: gradient norm              0.000245668845 Eh/a0 ::
         :: HOMO-LUMO gap              2.264720707770 eV    ::
         ::.................................................::
         :: SCC energy               -41.420619025001 Eh    ::
         :: -> isotropic ES            0.010222665708 Eh    ::
         :: -> anisotropic ES          0.004140588018 Eh    ::
         :: -> anisotropic XC          0.030404159107 Eh    ::
         :: -> dispersion             -0.028783204331 Eh    ::
         :: -> Gsolv                  -0.016874701545 Eh    ::
         ::    -> Gelec               -0.000399535469 Eh    ::
         ::    -> Gsasa               -0.021334325212 Eh    ::
         ::    -> Ghb                 -0.000339495615 Eh    ::
         ::    -> Gshift               0.005198654751 Eh    ::
         :: repulsion energy           0.769962614964 Eh    ::
         :: add. restraining           0.000000000000 Eh    ::
         :: total charge              -0.000000000000 e     ::
         :::::::::::::::::::::::::::::::::::::::::::::::::::::

           -------------------------------------------------
          |                Property Printout                |
           -------------------------------------------------

    * Orbital Energies and Occupations

         #    Occupation            Energy/Eh            Energy/eV
      -------------------------------------------------------------
         1        2.0000           -0.6582826             -17.9128
       ...           ...                  ...                  ...
        26        2.0000           -0.4667819             -12.7018
        27        2.0000           -0.4660712             -12.6824
        28        2.0000           -0.4610598             -12.5461
        29        2.0000           -0.4422285             -12.0337
        30        2.0000           -0.4340348             -11.8107
        31        2.0000           -0.4304451             -11.7130
        32        2.0000           -0.4211944             -11.4613
        33        2.0000           -0.4185272             -11.3887
        34        2.0000           -0.4164641             -11.3326
        35        2.0000           -0.4029510             -10.9649
        36        2.0000           -0.3948385             -10.7441
        37        2.0000           -0.3842211             -10.4552
        38        2.0000           -0.3602317              -9.8024 (HOMO)
        39                         -0.2770048              -7.5377 (LUMO)
        40                         -0.2479234              -6.7463
        41                         -0.2204286              -5.9982
        42                         -0.2106521              -5.7321
        43                         -0.1930987              -5.2545
        44                         -0.1475652              -4.0155
        45                         -0.0841222              -2.2891
        46                         -0.0538941              -1.4665
        47                          0.0879385               2.3929
        48                          0.1024773               2.7885
        49                          0.1261740               3.4334
       ...                                ...                  ...
        75                          0.7040250              19.1575
      -------------------------------------------------------------
                  HL-Gap            0.0832270 Eh            2.2647 eV
             Fermi-level           -0.3186183 Eh           -8.6700 eV

     #   Z          covCN         q      C6AA      α(0)
     1   6 C        2.919    -0.030    28.743     8.792
     2   6 C        2.917    -0.030    28.756     8.794
     3   6 C        2.927    -0.030    28.741     8.792
     4   6 C        2.978     0.004    27.933     8.669
     5   6 C        2.923    -0.034    28.849     8.808
     6   6 C        2.918    -0.032    28.806     8.801
     7   6 C        2.945     0.096    25.878     8.343
     8   6 C        2.912    -0.049    29.210     8.862
     9   6 C        2.920    -0.023    28.574     8.766
    10   6 C        2.985    -0.001    28.053     8.688
    11   6 C        2.915    -0.037    28.931     8.820
    12   6 C        2.916    -0.032    28.800     8.800
    13   6 C        2.916    -0.030    28.746     8.792
    14   6 C        2.920    -0.043    29.056     8.839
    15   6 C        2.960     0.090    26.003     8.364
    16   7 N        1.852    -0.252    27.416     7.760
    17   1 H        0.926     0.036     2.502     2.474
    18   1 H        0.926     0.037     2.487     2.466
    19   1 H        0.926     0.059     2.209     2.324
    20   1 H        0.926     0.033     2.548     2.496
    21   1 H        0.926     0.034     2.526     2.485
    22   1 H        0.926     0.035     2.515     2.480
    23   1 H        0.925     0.034     2.525     2.485
    24   1 H        0.925     0.035     2.512     2.479
    25   1 H        0.926     0.038     2.472     2.459
    26   1 H        0.926     0.040     2.448     2.447
    27   1 H        0.926     0.051     2.303     2.373

 Mol. C6AA /au·bohr⁶  :      10461.344898
 Mol. C8AA /au·bohr⁸  :     263940.260537
 Mol. α(0) /au        :        165.659542


Wiberg/Mayer (AO) data.
largest (>0.10) Wiberg bond orders for each atom

 ---------------------------------------------------------------------------
     #   Z sym  total        # sym  WBO       # sym  WBO       # sym  WBO
 ---------------------------------------------------------------------------
     1   6 C    3.981 --     6 C    1.435     2 C    1.427    17 H    0.971
                             4 C    0.102
     2   6 C    3.992 --     3 C    1.463     1 C    1.427    18 H    0.970
                             5 C    0.105
     3   6 C    3.985 --     2 C    1.463     4 C    1.373    19 H    0.965
                             6 C    0.107
     4   6 C    3.988 --     5 C    1.386     3 C    1.373     7 C    1.060
                             1 C    0.102
     5   6 C    3.985 --     6 C    1.452     4 C    1.386    20 H    0.964
                             2 C    0.105
     6   6 C    3.992 --     5 C    1.452     1 C    1.435    21 H    0.971
                             3 C    0.107
     7   6 C    3.977 --    16 N    1.479     8 C    1.257     4 C    1.060
     8   6 C    3.991 --     9 C    1.576     7 C    1.257    22 H    0.963
     9   6 C    3.990 --     8 C    1.576    10 C    1.275    23 H    0.967
    10   6 C    3.986 --    11 C    1.285     9 C    1.275    15 C    1.231
    11   6 C    3.991 --    12 C    1.553    10 C    1.285    24 H    0.968
                            14 C    0.117
    12   6 C    3.982 --    11 C    1.553    13 C    1.320    25 H    0.971
    13   6 C    3.991 --    14 C    1.561    12 C    1.320    26 H    0.970
    14   6 C    3.985 --    13 C    1.561    15 C    1.263    27 H    0.967
                            11 C    0.117
    15   6 C    3.981 --    16 N    1.303    14 C    1.263    10 C    1.231
    16   7 N    3.064 --     7 C    1.479    15 C    1.303
    17   1 H    0.998 --     1 C    0.971
    18   1 H    0.998 --     2 C    0.970
    19   1 H    0.996 --     3 C    0.965
    20   1 H    0.999 --     5 C    0.964
    21   1 H    0.998 --     6 C    0.971
    22   1 H    0.998 --     8 C    0.963
    23   1 H    0.998 --     9 C    0.967
    24   1 H    0.999 --    11 C    0.968
    25   1 H    0.998 --    12 C    0.971
    26   1 H    0.998 --    13 C    0.970
    27   1 H    0.997 --    14 C    0.967
 ---------------------------------------------------------------------------

Topologies differ in total number of bonds
Writing topology from bond orders to xtbtopo.mol

molecular dipole:
                 x           y           z       tot (Debye)
 q only:        0.017      -0.087       0.068
   full:        0.182      -0.412       0.326       1.413
molecular quadrupole (traceless):
                xx          xy          yy          xz          yz          zz
 q only:        5.467       0.295      -1.908       0.133      -3.275      -3.558
  q+dip:        9.913       0.359      -2.563       0.491      -9.554      -7.350
   full:        6.706       0.267      -2.240       0.249      -4.443      -4.466

           -------------------------------------------------
          |                Geometry Summary                 |
           -------------------------------------------------

      molecular mass/u    :      205.2550900
   center of mass at/Å    :        0.0507600       0.0229915      -0.0164764
  moments of inertia/u·Å² :        0.2891271E+03   0.1777645E+04   0.2066770E+04
rotational constants/cm⁻¹ :        0.5830526E-01   0.9483124E-02   0.8156510E-02

 * 28 selected distances

     #   Z          #   Z                                           value/Å
     1   6 C        2   6 C                                       1.3863178
     2   6 C        3   6 C                                       1.3804835
     3   6 C        4   6 C                                       1.3974306
     4   6 C        5   6 C                                       1.3948066
     1   6 C        6   6 C                                       1.3846897
     5   6 C        6   6 C                                       1.3833857
     7   6 C        8   6 C                                       1.4190802
     8   6 C        9   6 C                                       1.3655270
     9   6 C       10   6 C                                       1.4107542
    10   6 C       11   6 C                                       1.4078500
    11   6 C       12   6 C                                       1.3678652
    12   6 C       13   6 C                                       1.4051541
    13   6 C       14   6 C                                       1.3669725
    10   6 C       15   6 C                                       1.4222864 (max)
    14   6 C       15   6 C                                       1.4125450
     7   6 C       16   7 N                                       1.3158323
    15   6 C       16   7 N                                       1.3430061
     1   6 C       17   1 H                                       1.0802049
     2   6 C       18   1 H                                       1.0803419
     3   6 C       19   1 H                                       1.0783349
     5   6 C       20   1 H                                       1.0790313
     6   6 C       21   1 H                                       1.0806298
     8   6 C       22   1 H                                       1.0778444 (min)
     9   6 C       23   1 H                                       1.0819771
    11   6 C       24   1 H                                       1.0812666
    12   6 C       25   1 H                                       1.0801983
    13   6 C       26   1 H                                       1.0803679
    14   6 C       27   1 H                                       1.0788698

 * 3 distinct bonds (by element types)

   Z      Z             #   av. dist./Å        max./Å        min./Å
   1 H    6 C          11     1.0799152     1.0819771     1.0778444
   6 C    6 C          15     1.3936766     1.4222864     1.3655270
   6 C    7 N           2     1.3294192     1.3430061     1.3158323


optimized geometry written to: xtbopt.xyz


           -------------------------------------------------
          | TOTAL ENERGY              -40.650656410037 Eh   |
          | GRADIENT NORM               0.000245668845 Eh/α |
          | HOMO-LUMO GAP               2.264720707770 eV   |
           -------------------------------------------------

------------------------------------------------------------------------
 * finished run on 2026/09/27 at 21:41:08.527     
------------------------------------------------------------------------
 total:
 * wall-time:     0 d,  0 h,  0 min,  0.246 sec
 *  cpu-time:     0 d,  0 h,  0 min,  0.141 sec
 * ratio c/w:     0.571 speedup
 SCF:
 * wall-time:     0 d,  0 h,  0 min,  0.027 sec
 *  cpu-time:     0 d,  0 h,  0 min,  0.000 sec
 * ratio c/w:     0.000 speedup
 ANC optimizer:
 * wall-time:     0 d,  0 h,  0 min,  0.195 sec
 *  cpu-time:     0 d,  0 h,  0 min,  0.125 sec
 * ratio c/w:     0.640 speedup

