      -----------------------------------------------------------      
     |                   =====================                   |     
     |                           x T B                           |     
     |                   =====================                   |     
     |                         S. Grimme                         |     
     |          Mulliken Center for Theoretical Chemistry        |     
     |                    University of Bonn                     |     
      -----------------------------------------------------------      

   * xtb version 6.7.1 (edcfbbe) compiled by 'VssAdministrator@runnervm171ch' on 2026-06-10

   xtb is free software: you can redistribute it and/or modify it under
   the terms of the GNU Lesser General Public License as published by
   the Free Software Foundation, either version 3 of the License, or
   (at your option) any later version.
   
   xtb is distributed in the hope that it will be useful,
   but WITHOUT ANY WARRANTY; without even the implied warranty of
   MERCHANTABILITY or FITNESS FOR A PARTICULAR PURPOSE.  See the
   GNU Lesser General Public License for more details.
   
   Cite this work as:
   * C. Bannwarth, E. Caldeweyher, S. Ehlert, A. Hansen, P. Pracht,
     J. Seibert, S. Spicher, S. Grimme, WIREs Comput. Mol. Sci., 2020, 11,
     e01493. DOI: 10.1002/wcms.1493
   
   for GFN2-xTB:
   * C. Bannwarth, S. Ehlert and S. Grimme., J. Chem. Theory Comput., 2019,
     15, 1652-1671. DOI: 10.1021/acs.jctc.8b01176
   for GFN1-xTB:
   * S. Grimme, C. Bannwarth, P. Shushkov, J. Chem. Theory Comput., 2017,
     13, 1989-2009. DOI: 10.1021/acs.jctc.7b00118
   for GFN0-xTB:
   * P. Pracht, E. Caldeweyher, S. Ehlert, S. Grimme, ChemRxiv, 2019, preprint.
     DOI: 10.26434/chemrxiv.8326202.v1
   for GFN-FF:
   * S. Spicher and S. Grimme, Angew. Chem. Int. Ed., 2020, 59, 15665-15673.
     DOI: 10.1002/anie.202004239
   
   for ALPB and GBSA implicit solvation:
   * S. Ehlert, M. Stahn, S. Spicher, S. Grimme, J. Chem. Theory Comput.,
     2021, 17, 4250-4261. DOI: 10.1021/acs.jctc.1c00471
   
   for ddCOSMO and CPCM-X implicit solvation:
   * M. Stahn, S. Ehlert, S. Grimme, J. Phys. Chem. A,
     2023, XX, XXXX-XXXX. DOI: 10.1021/acs.jpca.3c04382
   
   for DFT-D4:
   * E. Caldeweyher, C. Bannwarth and S. Grimme, J. Chem. Phys., 2017,
     147, 034112. DOI: 10.1063/1.4993215
   * E. Caldeweyher, S. Ehlert, A. Hansen, H. Neugebauer, S. Spicher,
     C. Bannwarth and S. Grimme, J. Chem. Phys., 2019, 150, 154122.
     DOI: 10.1063/1.5090222
   * E. Caldeweyher, J.-M. Mewes, S. Ehlert and S. Grimme, Phys. Chem. Chem. Phys.
     2020, 22, 8499-8512. DOI: 10.1039/D0CP00502A
   
   for sTDA-xTB:
   * S. Grimme and C. Bannwarth, J. Chem. Phys., 2016, 145, 054103.
     DOI: 10.1063/1.4959605
   
   in the mass-spec context:
   * V. Asgeirsson, C. Bauer and S. Grimme, Chem. Sci., 2017, 8, 4879.
     DOI: 10.1039/c7sc00601b
   * J. Koopman and S. Grimme, ACS Omega 2019, 4, 12, 15120-15133.
     DOI: 10.1021/acsomega.9b02011
   
   for metadynamics refer to:
   * S. Grimme, J. Chem. Theory Comput., 2019, 155, 2847-2862
     DOI: 10.1021/acs.jctc.9b00143
   
   for SPH calculations refer to:
   * S. Spicher and S. Grimme, J. Chem. Theory Comput., 2021, 17, 1701-1714
     DOI: 10.1021/acs.jctc.0c01306
   
   for ONIOM refer to:
   * C. Plett, A. Katbashev, S. Ehlert, S. Grimme, M. Bursch,
     Phys. Chem. Chem. Phys., 2023, 25, 17860-17868. DOI: 10.1039/D3CP02178E
   
   for DIPRO refer to:
   * J. Kohn, N. Gildemeister, S. Grimme, D. Fazzi, A. Hansen,
     J. Chem. Phys., 2023, just accepted.
   
   for PTB refer to:
   * S. Grimme, M. Mueller, A. Hansen, J. Chem. Phys., 2023, 158, 124111.
     DOI: 10.1063/5.0137838
   
   with help from (in alphabetical order)
   P. Atkinson, C. Bannwarth, F. Bohle, G. Brandenburg, E. Caldeweyher
   M. Checinski, S. Dohm, S. Ehlert, S. Ehrlich, I. Gerasimov, C. Hölzer
   A. Katbashev, J. Kohn, J. Koopman, C. Lavigne, S. Lehtola, F. März, M. Müller,
   F. Musil, H. Neugebauer, J. Pisarek, C. Plett, P. Pracht, F. Pultar,
   J. Seibert, P. Shushkov, S. Spicher, M. Stahn, M. Steiner, T. Strunk,
   J. Stückrath, T. Rose, and J. Unsleber
   
 * started run on 2026/09/27 at 14:01:47.140     
   ID    Z sym.   atoms
    1    6 C      1, 3-10
    2    7 N      2
    3    1 H      11-19

           -------------------------------------------------
          |                Calculation Setup                |
           -------------------------------------------------

          program call               : xtb input.xyz --gfn 2 --alpb acetonitrile --chrg -1 --uhf 1 --scc --json --parallel 1 --norestart
          coordinate file            : input.xyz
          omp threads                :                     1


           -------------------------------------------------
          |                 G F N 2 - x T B                 |
           -------------------------------------------------

        Reference                      10.1021/acs.jctc.8b01176
      * Hamiltonian:
        H0-scaling (s, p, d)           1.850000    2.230000    2.230000
        zeta-weighting                 0.500000
      * Dispersion:
        s8                             2.700000
        a1                             0.520000
        a2                             5.000000
        s9                             5.000000
      * Repulsion:
        kExp                           1.500000    1.000000
        rExp                           1.000000
      * Coulomb:
        alpha                          2.000000
        third order                    shell-resolved
        anisotropic                    true
        a3                             3.000000
        a5                             4.000000
        cn-shift                       1.200000
        cn-exp                         4.000000
        max-rad                        5.000000

      * Solvation model:               ALPB
        Solvent                        acetonitrile
        Parameter file                 internal GFN2-xTB/ALPB
        Dielectric constant                3.7500E+01
        Reference state                gsolv [1 M gas/solution]
        Free energy shift                  5.1987E-03 Eh       3.2622E+00 kcal/mol
        Temperature                        2.9815E+02 K
        Density                            7.8600E-01 kg/L
        Solvent mass                       4.1050E+01 g/mol
        Interaction kernel             P16
        Born radius scaling (c1)           1.7214E+00
        Born radii integrator          GBOBC
        Born offset                        0.0000E+00 a0       0.0000E+00 AA
        H-bond correction              true
        Ion screening                  false
        Surface tension                    1.0000E-05 Eh       1.5569E+01 dyn/cm
        Grid points                               230 per atom

          ...................................................
          :                      SETUP                      :
          :.................................................:
          :  # basis functions                  49          :
          :  # atomic orbitals                  49          :
          :  # shells                           29          :
          :  # electrons                        51          :
          :  max. iterations                   250          :
          :  Hamiltonian                  GFN2-xTB          :
          :  restarted?                      false          :
          :  GBSA solvation                   true          :
          :  PC potential                    false          :
          :  electronic temp.          300.0000000     K    :
          :  accuracy                    1.0000000          :
          :  -> integral cutoff          0.2500000E+02      :
          :  -> integral neglect         0.1000000E-07      :
          :  -> SCF convergence          0.1000000E-05 Eh   :
          :  -> wf. convergence          0.1000000E-03 e    :
          :  Broyden damping             0.4000000          :
          :  net charge                         -1          :
          :  unpaired electrons                  1          :
          ...................................................

 iter      E             dE          RMSdq      gap      omega  full diag
   1    -27.3889335 -0.273889E+02  0.306E+00    1.01       0.0  T
   2    -27.4489673 -0.600339E-01  0.232E+00    0.75       1.0  T
   3    -27.4601912 -0.112239E-01  0.129E+00    0.72       1.0  T
   4    -27.4572468  0.294443E-02  0.795E-01    0.80       1.0  T
   5    -27.4644920 -0.724524E-02  0.112E-01    0.72       1.0  T
   6    -27.4645688 -0.768112E-04  0.559E-02    0.73       1.0  T
   7    -27.4645917 -0.229164E-04  0.202E-02    0.73       1.1  T
   8    -27.4645920 -0.255381E-06  0.136E-02    0.73       1.7  T
   9    -27.4645935 -0.153267E-05  0.338E-03    0.73       6.8  T
  10    -27.4645936 -0.835978E-07  0.143E-03    0.73      16.0  T
  11    -27.4645936 -0.866697E-08  0.716E-04    0.73      32.1  T
  12    -27.4645936 -0.105705E-08  0.340E-04    0.73      67.4  T

   *** convergence criteria satisfied after 12 iterations ***

         #    Occupation            Energy/Eh            Energy/eV
      -------------------------------------------------------------
         1        2.0000           -0.6067627             -16.5109
       ...           ...                  ...                  ...
        20        2.0000           -0.3670043              -9.9867
        21        2.0000           -0.3535874              -9.6216
        22        2.0000           -0.3425405              -9.3210
        23        2.0000           -0.3305394              -8.9944
        24        2.0000           -0.2976413              -8.0992
        25        2.0000           -0.2804627              -7.6318
        26        1.0000           -0.1440172              -3.9189 (HOMO)
        27        0.0000           -0.1173195              -3.1924 (LUMO)
        28                         -0.0738755              -2.0103
        29                          0.0139577               0.3798
        30                          0.0767462               2.0884
        31                          0.1608673               4.3774
       ...                                ...                  ...
        49                          0.8120056              22.0958
      -------------------------------------------------------------
                  HL-Gap            0.0266977 Eh            0.7265 eV
             Fermi-level           -0.1714542 Eh           -4.6655 eV

 SCC (total)                   0 d,  0 h,  0 min,  0.031 sec
 SCC setup                      ...        0 min,  0.001 sec (  3.057%)
 Dispersion                     ...        0 min,  0.000 sec (  0.618%)
 classical contributions        ...        0 min,  0.000 sec (  0.190%)
 integral evaluation            ...        0 min,  0.002 sec (  7.278%)
 iterations                     ...        0 min,  0.016 sec ( 51.816%)
 molecular gradient             ...        0 min,  0.011 sec ( 34.524%)
 printout                       ...        0 min,  0.001 sec (  2.414%)

         :::::::::::::::::::::::::::::::::::::::::::::::::::::
         ::                     SUMMARY                     ::
         :::::::::::::::::::::::::::::::::::::::::::::::::::::
         :: total energy             -26.983197098597 Eh    ::
         :: total w/o Gsasa/hb       -26.972957341556 Eh    ::
         :: gradient norm              0.100245057787 Eh/a0 ::
         :: HOMO-LUMO gap              0.726482052587 eV    ::
         ::.................................................::
         :: SCC energy               -27.464544393384 Eh    ::
         :: -> isotropic ES            0.110387051673 Eh    ::
         :: -> anisotropic ES          0.022513642511 Eh    ::
         :: -> anisotropic XC          0.011960435304 Eh    ::
         :: -> dispersion             -0.019082919097 Eh    ::
         :: -> Gsolv                  -0.075409504665 Eh    ::
         ::    -> Gelec               -0.065169747625 Eh    ::
         ::    -> Gsasa               -0.014859667454 Eh    ::
         ::    -> Ghb                 -0.000578744338 Eh    ::
         ::    -> Gshift               0.005198654751 Eh    ::
         :: repulsion energy           0.481347294788 Eh    ::
         :: add. restraining           0.000000000000 Eh    ::
         :: total charge              -1.000000000000 e     ::
         :::::::::::::::::::::::::::::::::::::::::::::::::::::

           -------------------------------------------------
          |                Property Printout                |
           -------------------------------------------------

    * Orbital Energies and Occupations

         #    Occupation            Energy/Eh            Energy/eV
      -------------------------------------------------------------
         1        2.0000           -0.6067627             -16.5109
       ...           ...                  ...                  ...
        14        2.0000           -0.4326457             -11.7729
        15        2.0000           -0.4183408             -11.3836
        16        2.0000           -0.4080975             -11.1049
        17        2.0000           -0.4051337             -11.0242
        18        2.0000           -0.3888962             -10.5824
        19        2.0000           -0.3817084             -10.3868
        20        2.0000           -0.3670043              -9.9867
        21        2.0000           -0.3535874              -9.6216
        22        2.0000           -0.3425405              -9.3210
        23        2.0000           -0.3305394              -8.9944
        24        2.0000           -0.2976413              -8.0992
        25        2.0000           -0.2804627              -7.6318
        26        1.0000           -0.1440172              -3.9189 (HOMO)
        27        0.0000           -0.1173195              -3.1924 (LUMO)
        28                         -0.0738755              -2.0103
        29                          0.0139577               0.3798
        30                          0.0767462               2.0884
        31                          0.1608673               4.3774
        32                          0.1687946               4.5931
        33                          0.1896678               5.1611
        34                          0.2076250               5.6498
        35                          0.2099805               5.7139
        36                          0.2160510               5.8790
        37                          0.2279782               6.2036
       ...                                ...                  ...
        49                          0.8120056              22.0958
      -------------------------------------------------------------
                  HL-Gap            0.0266977 Eh            0.7265 eV
             Fermi-level           -0.1714542 Eh           -4.6655 eV

     #   Z          covCN         q      C6AA      α(0)
     1   6 C        3.690    -0.028    21.261     6.599
     2   7 N        2.820    -0.068    22.560     7.054
     3   6 C        3.051    -0.073    29.772     8.949
     4   6 C        3.008    -0.118    30.968     9.129
     5   6 C        3.116    -0.049    29.039     8.827
     6   6 C        2.911    -0.111    30.807     9.101
     7   6 C        2.919    -0.067    29.681     8.934
     8   6 C        2.923    -0.087    30.190     9.011
     9   6 C        2.908    -0.124    31.164     9.154
    10   6 C        3.108     0.019    27.436     8.582
    11   1 H        0.924     0.027     2.628     2.535
    12   1 H        0.924     0.027     2.629     2.535
    13   1 H        0.925     0.039     2.465     2.455
    14   1 H        0.926    -0.053     4.174     3.195
    15   1 H        0.926    -0.058     4.295     3.241
    16   1 H        0.926    -0.075     4.764     3.413
    17   1 H        0.926    -0.064     4.460     3.303
    18   1 H        0.926    -0.069     4.576     3.345
    19   1 H        0.926    -0.067     4.535     3.330

 Mol. C6AA /au·bohr⁶  :       4972.853283
 Mol. C8AA /au·bohr⁸  :     117510.120546
 Mol. α(0) /au        :        112.691646


Wiberg/Mayer (AO) data.
largest (>0.10) Wiberg bond orders for each atom

 ---------------------------------------------------------------------------
     #   Z sym  total        # sym  WBO       # sym  WBO       # sym  WBO
 ---------------------------------------------------------------------------
     1   6 C    3.990 --     2 N    1.017    13 H    0.983    11 H    0.977
                            12 H    0.977
     2   7 N    3.529 --    10 C    1.160     3 C    1.117     1 C    1.017
     3   6 C    3.830 --     4 C    1.442     2 N    1.117    14 H    0.967
     4   6 C    3.939 --     3 C    1.442     5 C    1.303    15 H    0.972
     5   6 C    3.972 --     4 C    1.303    10 C    1.261     6 C    1.214
     6   6 C    3.881 --     7 C    1.409     5 C    1.214    16 H    0.966
     7   6 C    3.973 --     8 C    1.440     6 C    1.409    17 H    0.969
     8   6 C    3.942 --     7 C    1.440     9 C    1.311    18 H    0.969
     9   6 C    3.882 --    10 C    1.317     8 C    1.311    19 H    0.966
    10   6 C    3.952 --     9 C    1.317     5 C    1.261     2 N    1.160
    11   1 H    0.998 --     1 C    0.977
    12   1 H    0.998 --     1 C    0.977
    13   1 H    0.998 --     1 C    0.983
    14   1 H    0.996 --     3 C    0.967
    15   1 H    0.996 --     4 C    0.972
    16   1 H    0.994 --     6 C    0.966
    17   1 H    0.996 --     7 C    0.969
    18   1 H    0.995 --     8 C    0.969
    19   1 H    0.995 --     9 C    0.966
 ---------------------------------------------------------------------------

Topologies differ in total number of bonds
Writing topology from bond orders to xtbtopo.mol

molecular dipole:
                 x           y           z       tot (Debye)
 q only:       -2.084      -0.641       0.038
   full:       -2.153      -0.718       0.049       5.769
molecular quadrupole (traceless):
                xx          xy          yy          xz          yz          zz
 q only:       -6.223       4.870      -4.272      -1.624       3.192      10.495
  q+dip:       -3.545       4.643      -2.314      -1.288       1.847       5.858
   full:       -4.161       4.743      -3.030      -1.384       2.266       7.190


           -------------------------------------------------
          | TOTAL ENERGY              -26.983197098597 Eh   |
          | GRADIENT NORM               0.100245057787 Eh/α |
          | HOMO-LUMO GAP               0.726482052587 eV   |
           -------------------------------------------------

------------------------------------------------------------------------
 * finished run on 2026/09/27 at 14:01:47.210     
------------------------------------------------------------------------
 total:
 * wall-time:     0 d,  0 h,  0 min,  0.068 sec
 *  cpu-time:     0 d,  0 h,  0 min,  0.000 sec
 * ratio c/w:     0.000 speedup
 SCF:
 * wall-time:     0 d,  0 h,  0 min,  0.031 sec
 *  cpu-time:     0 d,  0 h,  0 min,  0.000 sec
 * ratio c/w:     0.000 speedup

