      -----------------------------------------------------------      
     |                   =====================                   |     
     |                           x T B                           |     
     |                   =====================                   |     
     |                         S. Grimme                         |     
     |          Mulliken Center for Theoretical Chemistry        |     
     |                    University of Bonn                     |     
      -----------------------------------------------------------      

   * xtb version 6.7.1 (edcfbbe) compiled by 'VssAdministrator@runnervm171ch' on 2026-06-10

   xtb is free software: you can redistribute it and/or modify it under
   the terms of the GNU Lesser General Public License as published by
   the Free Software Foundation, either version 3 of the License, or
   (at your option) any later version.
   
   xtb is distributed in the hope that it will be useful,
   but WITHOUT ANY WARRANTY; without even the implied warranty of
   MERCHANTABILITY or FITNESS FOR A PARTICULAR PURPOSE.  See the
   GNU Lesser General Public License for more details.
   
   Cite this work as:
   * C. Bannwarth, E. Caldeweyher, S. Ehlert, A. Hansen, P. Pracht,
     J. Seibert, S. Spicher, S. Grimme, WIREs Comput. Mol. Sci., 2020, 11,
     e01493. DOI: 10.1002/wcms.1493
   
   for GFN2-xTB:
   * C. Bannwarth, S. Ehlert and S. Grimme., J. Chem. Theory Comput., 2019,
     15, 1652-1671. DOI: 10.1021/acs.jctc.8b01176
   for GFN1-xTB:
   * S. Grimme, C. Bannwarth, P. Shushkov, J. Chem. Theory Comput., 2017,
     13, 1989-2009. DOI: 10.1021/acs.jctc.7b00118
   for GFN0-xTB:
   * P. Pracht, E. Caldeweyher, S. Ehlert, S. Grimme, ChemRxiv, 2019, preprint.
     DOI: 10.26434/chemrxiv.8326202.v1
   for GFN-FF:
   * S. Spicher and S. Grimme, Angew. Chem. Int. Ed., 2020, 59, 15665-15673.
     DOI: 10.1002/anie.202004239
   
   for ALPB and GBSA implicit solvation:
   * S. Ehlert, M. Stahn, S. Spicher, S. Grimme, J. Chem. Theory Comput.,
     2021, 17, 4250-4261. DOI: 10.1021/acs.jctc.1c00471
   
   for ddCOSMO and CPCM-X implicit solvation:
   * M. Stahn, S. Ehlert, S. Grimme, J. Phys. Chem. A,
     2023, XX, XXXX-XXXX. DOI: 10.1021/acs.jpca.3c04382
   
   for DFT-D4:
   * E. Caldeweyher, C. Bannwarth and S. Grimme, J. Chem. Phys., 2017,
     147, 034112. DOI: 10.1063/1.4993215
   * E. Caldeweyher, S. Ehlert, A. Hansen, H. Neugebauer, S. Spicher,
     C. Bannwarth and S. Grimme, J. Chem. Phys., 2019, 150, 154122.
     DOI: 10.1063/1.5090222
   * E. Caldeweyher, J.-M. Mewes, S. Ehlert and S. Grimme, Phys. Chem. Chem. Phys.
     2020, 22, 8499-8512. DOI: 10.1039/D0CP00502A
   
   for sTDA-xTB:
   * S. Grimme and C. Bannwarth, J. Chem. Phys., 2016, 145, 054103.
     DOI: 10.1063/1.4959605
   
   in the mass-spec context:
   * V. Asgeirsson, C. Bauer and S. Grimme, Chem. Sci., 2017, 8, 4879.
     DOI: 10.1039/c7sc00601b
   * J. Koopman and S. Grimme, ACS Omega 2019, 4, 12, 15120-15133.
     DOI: 10.1021/acsomega.9b02011
   
   for metadynamics refer to:
   * S. Grimme, J. Chem. Theory Comput., 2019, 155, 2847-2862
     DOI: 10.1021/acs.jctc.9b00143
   
   for SPH calculations refer to:
   * S. Spicher and S. Grimme, J. Chem. Theory Comput., 2021, 17, 1701-1714
     DOI: 10.1021/acs.jctc.0c01306
   
   for ONIOM refer to:
   * C. Plett, A. Katbashev, S. Ehlert, S. Grimme, M. Bursch,
     Phys. Chem. Chem. Phys., 2023, 25, 17860-17868. DOI: 10.1039/D3CP02178E
   
   for DIPRO refer to:
   * J. Kohn, N. Gildemeister, S. Grimme, D. Fazzi, A. Hansen,
     J. Chem. Phys., 2023, just accepted.
   
   for PTB refer to:
   * S. Grimme, M. Mueller, A. Hansen, J. Chem. Phys., 2023, 158, 124111.
     DOI: 10.1063/5.0137838
   
   with help from (in alphabetical order)
   P. Atkinson, C. Bannwarth, F. Bohle, G. Brandenburg, E. Caldeweyher
   M. Checinski, S. Dohm, S. Ehlert, S. Ehrlich, I. Gerasimov, C. Hölzer
   A. Katbashev, J. Kohn, J. Koopman, C. Lavigne, S. Lehtola, F. März, M. Müller,
   F. Musil, H. Neugebauer, J. Pisarek, C. Plett, P. Pracht, F. Pultar,
   J. Seibert, P. Shushkov, S. Spicher, M. Stahn, M. Steiner, T. Strunk,
   J. Stückrath, T. Rose, and J. Unsleber
   
 * started run on 2026/09/27 at 14:01:46.649     
   ID    Z sym.   atoms
    1    6 C      1-4, 6-9
    2    7 N      5
    3    1 H      10-16

           -------------------------------------------------
          |                Calculation Setup                |
           -------------------------------------------------

          program call               : xtb input.xyz --gfn 2 --chrg -1 --uhf 1 --scc --json --parallel 1 --norestart
          coordinate file            : input.xyz
          omp threads                :                     1


           -------------------------------------------------
          |                 G F N 2 - x T B                 |
           -------------------------------------------------

        Reference                      10.1021/acs.jctc.8b01176
      * Hamiltonian:
        H0-scaling (s, p, d)           1.850000    2.230000    2.230000
        zeta-weighting                 0.500000
      * Dispersion:
        s8                             2.700000
        a1                             0.520000
        a2                             5.000000
        s9                             5.000000
      * Repulsion:
        kExp                           1.500000    1.000000
        rExp                           1.000000
      * Coulomb:
        alpha                          2.000000
        third order                    shell-resolved
        anisotropic                    true
        a3                             3.000000
        a5                             4.000000
        cn-shift                       1.200000
        cn-exp                         4.000000
        max-rad                        5.000000


          ...................................................
          :                      SETUP                      :
          :.................................................:
          :  # basis functions                  43          :
          :  # atomic orbitals                  43          :
          :  # shells                           25          :
          :  # electrons                        45          :
          :  max. iterations                   250          :
          :  Hamiltonian                  GFN2-xTB          :
          :  restarted?                      false          :
          :  GBSA solvation                  false          :
          :  PC potential                    false          :
          :  electronic temp.          300.0000000     K    :
          :  accuracy                    1.0000000          :
          :  -> integral cutoff          0.2500000E+02      :
          :  -> integral neglect         0.1000000E-07      :
          :  -> SCF convergence          0.1000000E-05 Eh   :
          :  -> wf. convergence          0.1000000E-03 e    :
          :  Broyden damping             0.4000000          :
          :  net charge                         -1          :
          :  unpaired electrons                  1          :
          ...................................................

 iter      E             dE          RMSdq      gap      omega  full diag
   1    -24.1171861 -0.241172E+02  0.324E+00    0.98       0.0  T
   2    -24.1553088 -0.381227E-01  0.249E+00    0.81       1.0  T
   3    -24.1686301 -0.133213E-01  0.140E+00    0.73       1.0  T
   4    -24.1689560 -0.325958E-03  0.879E-01    0.85       1.0  T
   5    -24.1765220 -0.756599E-02  0.168E-01    0.72       1.0  T
   6    -24.1767847 -0.262711E-03  0.744E-02    0.75       1.0  T
   7    -24.1768377 -0.529379E-04  0.367E-02    0.74       1.0  T
   8    -24.1768482 -0.105128E-04  0.164E-02    0.74       1.5  T
   9    -24.1768489 -0.708044E-06  0.511E-03    0.74       4.9  T
  10    -24.1768491 -0.217344E-06  0.165E-03    0.74      15.2  T
  11    -24.1768491 -0.711452E-08  0.692E-04    0.74      36.1  T
  12    -24.1768491 -0.313946E-08  0.259E-04    0.74      96.7  T

   *** convergence criteria satisfied after 12 iterations ***

         #    Occupation            Energy/Eh            Energy/eV
      -------------------------------------------------------------
         1        2.0000           -0.4647708             -12.6471
       ...           ...                  ...                  ...
        17        2.0000           -0.2417514              -6.5784
        18        2.0000           -0.2259637              -6.1488
        19        2.0000           -0.2144872              -5.8365
        20        2.0000           -0.2053847              -5.5888
        21        2.0000           -0.1716321              -4.6703
        22        2.0000           -0.1551474              -4.2218
        23        1.0000           -0.0167526              -0.4559 (HOMO)
        24        0.0000            0.0105613               0.2874 (LUMO)
        25                          0.0528735               1.4388
        26                          0.1418782               3.8607
        27                          0.2116570               5.7595
        28                          0.3074233               8.3654
       ...                                ...                  ...
        43                          0.9383581              25.5340
      -------------------------------------------------------------
                  HL-Gap            0.0273139 Eh            0.7432 eV
             Fermi-level           -0.0445228 Eh           -1.2115 eV

 SCC (total)                   0 d,  0 h,  0 min,  0.027 sec
 SCC setup                      ...        0 min,  0.000 sec (  1.215%)
 Dispersion                     ...        0 min,  0.000 sec (  0.614%)
 classical contributions        ...        0 min,  0.000 sec (  0.183%)
 integral evaluation            ...        0 min,  0.002 sec (  7.719%)
 iterations                     ...        0 min,  0.016 sec ( 59.170%)
 molecular gradient             ...        0 min,  0.008 sec ( 28.580%)
 printout                       ...        0 min,  0.001 sec (  2.418%)

         :::::::::::::::::::::::::::::::::::::::::::::::::::::
         ::                     SUMMARY                     ::
         :::::::::::::::::::::::::::::::::::::::::::::::::::::
         :: total energy             -23.738495515319 Eh    ::
         :: gradient norm              0.100784555105 Eh/a0 ::
         :: HOMO-LUMO gap              0.743249977430 eV    ::
         ::.................................................::
         :: SCC energy               -24.176824537821 Eh    ::
         :: -> isotropic ES            0.109771964396 Eh    ::
         :: -> anisotropic ES          0.022330053005 Eh    ::
         :: -> anisotropic XC          0.009903295173 Eh    ::
         :: -> dispersion             -0.015753457304 Eh    ::
         :: repulsion energy           0.438329022502 Eh    ::
         :: add. restraining           0.000000000000 Eh    ::
         :: total charge              -1.000000000000 e     ::
         :::::::::::::::::::::::::::::::::::::::::::::::::::::

           -------------------------------------------------
          |                Property Printout                |
           -------------------------------------------------

    * Orbital Energies and Occupations

         #    Occupation            Energy/Eh            Energy/eV
      -------------------------------------------------------------
         1        2.0000           -0.4647708             -12.6471
       ...           ...                  ...                  ...
        11        2.0000           -0.3105012              -8.4492
        12        2.0000           -0.3052260              -8.3056
        13        2.0000           -0.2821173              -7.6768
        14        2.0000           -0.2782037              -7.5703
        15        2.0000           -0.2612990              -7.1103
        16        2.0000           -0.2549716              -6.9381
        17        2.0000           -0.2417514              -6.5784
        18        2.0000           -0.2259637              -6.1488
        19        2.0000           -0.2144872              -5.8365
        20        2.0000           -0.2053847              -5.5888
        21        2.0000           -0.1716321              -4.6703
        22        2.0000           -0.1551474              -4.2218
        23        1.0000           -0.0167526              -0.4559 (HOMO)
        24        0.0000            0.0105613               0.2874 (LUMO)
        25                          0.0528735               1.4388
        26                          0.1418782               3.8607
        27                          0.2116570               5.7595
        28                          0.3074233               8.3654
        29                          0.3255783               8.8594
        30                          0.3385669               9.2129
        31                          0.3440009               9.3607
        32                          0.3746171              10.1939
        33                          0.4042878              11.0012
        34                          0.4246373              11.5550
       ...                                ...                  ...
        43                          0.9383581              25.5340
      -------------------------------------------------------------
                  HL-Gap            0.0273139 Eh            0.7432 eV
             Fermi-level           -0.0445228 Eh           -1.2115 eV

     #   Z          covCN         q      C6AA      α(0)
     1   6 C        2.919    -0.067    29.667     8.932
     2   6 C        2.924    -0.088    30.196     9.011
     3   6 C        2.908    -0.122    31.111     9.146
     4   6 C        3.092     0.025    27.337     8.570
     5   7 N        2.781    -0.149    24.214     7.308
     6   6 C        3.033    -0.067    29.621     8.927
     7   6 C        3.010    -0.112    30.828     9.108
     8   6 C        3.117    -0.048    29.019     8.824
     9   6 C        2.911    -0.109    30.748     9.093
    10   1 H        0.926    -0.057     4.270     3.231
    11   1 H        0.926    -0.062     4.398     3.279
    12   1 H        0.926    -0.067     4.536     3.330
    13   1 H        0.860     0.095     1.844     2.127
    14   1 H        0.926    -0.062     4.400     3.280
    15   1 H        0.926    -0.050     4.093     3.164
    16   1 H        0.926    -0.060     4.349     3.261

 Mol. C6AA /au·bohr⁶  :       3895.914044
 Mol. C8AA /au·bohr⁸  :      93646.884317
 Mol. α(0) /au        :        100.592049


Wiberg/Mayer (AO) data.
largest (>0.10) Wiberg bond orders for each atom

 ---------------------------------------------------------------------------
     #   Z sym  total        # sym  WBO       # sym  WBO       # sym  WBO
 ---------------------------------------------------------------------------
     1   6 C    3.977 --     2 C    1.439     9 C    1.414    10 H    0.970
     2   6 C    3.943 --     1 C    1.439     3 C    1.310    11 H    0.970
     3   6 C    3.885 --     4 C    1.324     2 C    1.310    12 H    0.966
     4   6 C    3.948 --     3 C    1.324     8 C    1.263     5 N    1.160
     5   7 N    3.464 --     4 C    1.160     6 C    1.113    13 H    0.962
     6   6 C    3.822 --     7 C    1.448     5 N    1.113    14 H    0.968
     7   6 C    3.941 --     6 C    1.448     8 C    1.300    15 H    0.973
     8   6 C    3.971 --     7 C    1.300     4 C    1.263     9 C    1.214
     9   6 C    3.888 --     1 C    1.414     8 C    1.214    16 H    0.968
    10   1 H    0.996 --     1 C    0.970
    11   1 H    0.996 --     2 C    0.970
    12   1 H    0.995 --     3 C    0.966
    13   1 H    0.990 --     5 N    0.962
    14   1 H    0.995 --     6 C    0.968
    15   1 H    0.997 --     7 C    0.973
    16   1 H    0.996 --     9 C    0.968
 ---------------------------------------------------------------------------

Topologies differ in total number of bonds
Writing topology from bond orders to xtbtopo.mol

molecular dipole:
                 x           y           z       tot (Debye)
 q only:        0.506      -0.465      -0.085
   full:        0.615      -0.704      -0.119       2.396
molecular quadrupole (traceless):
                xx          xy          yy          xz          yz          zz
 q only:      -10.256      -3.418       0.740       0.586      -0.964       9.516
  q+dip:       -7.788      -4.705       3.872       0.005       0.230       3.915
   full:       -8.424      -4.686       2.960       0.122      -0.090       5.464


           -------------------------------------------------
          | TOTAL ENERGY              -23.738495515319 Eh   |
          | GRADIENT NORM               0.100784555105 Eh/α |
          | HOMO-LUMO GAP               0.743249977430 eV   |
           -------------------------------------------------

------------------------------------------------------------------------
 * finished run on 2026/09/27 at 14:01:46.702     
------------------------------------------------------------------------
 total:
 * wall-time:     0 d,  0 h,  0 min,  0.053 sec
 *  cpu-time:     0 d,  0 h,  0 min,  0.000 sec
 * ratio c/w:     0.000 speedup
 SCF:
 * wall-time:     0 d,  0 h,  0 min,  0.028 sec
 *  cpu-time:     0 d,  0 h,  0 min,  0.000 sec
 * ratio c/w:     0.000 speedup

