24

C      3.330423    0.002550   -0.123565
N      2.057787   -0.654826    0.032253
C      1.859903   -1.991006    0.260609
N      0.577867   -2.283233    0.356347
C     -0.055603   -1.089929    0.182367
C      0.824790   -0.070651   -0.018790
C      0.422595    1.276409   -0.226752
O      1.224458    2.187991   -0.407193
N     -0.965975    1.436422   -0.201886
C     -1.504110    2.767640   -0.402201
C     -1.909175    0.407405    0.003194
O     -3.120063    0.648896    0.007999
N     -1.413496   -0.882197    0.198200
C     -2.317176   -1.996931    0.415976
H      4.134138   -0.732539   -0.031704
H      3.364969    0.463999   -1.113577
H      3.430590    0.757422    0.660262
H      2.673755   -2.700019    0.347810
H     -0.724625    3.518037   -0.555152
H     -2.162870    2.757053   -1.276803
H     -2.098130    3.046723    0.474302
H     -2.100442   -2.447702    1.389655
H     -3.363903   -1.682176    0.402670
H     -2.165707   -2.739339   -0.374020
