      -----------------------------------------------------------      
     |                   =====================                   |     
     |                           x T B                           |     
     |                   =====================                   |     
     |                         S. Grimme                         |     
     |          Mulliken Center for Theoretical Chemistry        |     
     |                    University of Bonn                     |     
      -----------------------------------------------------------      

   * xtb version 6.7.1 (edcfbbe) compiled by 'VssAdministrator@runnervm171ch' on 2026-06-10

   xtb is free software: you can redistribute it and/or modify it under
   the terms of the GNU Lesser General Public License as published by
   the Free Software Foundation, either version 3 of the License, or
   (at your option) any later version.
   
   xtb is distributed in the hope that it will be useful,
   but WITHOUT ANY WARRANTY; without even the implied warranty of
   MERCHANTABILITY or FITNESS FOR A PARTICULAR PURPOSE.  See the
   GNU Lesser General Public License for more details.
   
   Cite this work as:
   * C. Bannwarth, E. Caldeweyher, S. Ehlert, A. Hansen, P. Pracht,
     J. Seibert, S. Spicher, S. Grimme, WIREs Comput. Mol. Sci., 2020, 11,
     e01493. DOI: 10.1002/wcms.1493
   
   for GFN2-xTB:
   * C. Bannwarth, S. Ehlert and S. Grimme., J. Chem. Theory Comput., 2019,
     15, 1652-1671. DOI: 10.1021/acs.jctc.8b01176
   for GFN1-xTB:
   * S. Grimme, C. Bannwarth, P. Shushkov, J. Chem. Theory Comput., 2017,
     13, 1989-2009. DOI: 10.1021/acs.jctc.7b00118
   for GFN0-xTB:
   * P. Pracht, E. Caldeweyher, S. Ehlert, S. Grimme, ChemRxiv, 2019, preprint.
     DOI: 10.26434/chemrxiv.8326202.v1
   for GFN-FF:
   * S. Spicher and S. Grimme, Angew. Chem. Int. Ed., 2020, 59, 15665-15673.
     DOI: 10.1002/anie.202004239
   
   for ALPB and GBSA implicit solvation:
   * S. Ehlert, M. Stahn, S. Spicher, S. Grimme, J. Chem. Theory Comput.,
     2021, 17, 4250-4261. DOI: 10.1021/acs.jctc.1c00471
   
   for ddCOSMO and CPCM-X implicit solvation:
   * M. Stahn, S. Ehlert, S. Grimme, J. Phys. Chem. A,
     2023, XX, XXXX-XXXX. DOI: 10.1021/acs.jpca.3c04382
   
   for DFT-D4:
   * E. Caldeweyher, C. Bannwarth and S. Grimme, J. Chem. Phys., 2017,
     147, 034112. DOI: 10.1063/1.4993215
   * E. Caldeweyher, S. Ehlert, A. Hansen, H. Neugebauer, S. Spicher,
     C. Bannwarth and S. Grimme, J. Chem. Phys., 2019, 150, 154122.
     DOI: 10.1063/1.5090222
   * E. Caldeweyher, J.-M. Mewes, S. Ehlert and S. Grimme, Phys. Chem. Chem. Phys.
     2020, 22, 8499-8512. DOI: 10.1039/D0CP00502A
   
   for sTDA-xTB:
   * S. Grimme and C. Bannwarth, J. Chem. Phys., 2016, 145, 054103.
     DOI: 10.1063/1.4959605
   
   in the mass-spec context:
   * V. Asgeirsson, C. Bauer and S. Grimme, Chem. Sci., 2017, 8, 4879.
     DOI: 10.1039/c7sc00601b
   * J. Koopman and S. Grimme, ACS Omega 2019, 4, 12, 15120-15133.
     DOI: 10.1021/acsomega.9b02011
   
   for metadynamics refer to:
   * S. Grimme, J. Chem. Theory Comput., 2019, 155, 2847-2862
     DOI: 10.1021/acs.jctc.9b00143
   
   for SPH calculations refer to:
   * S. Spicher and S. Grimme, J. Chem. Theory Comput., 2021, 17, 1701-1714
     DOI: 10.1021/acs.jctc.0c01306
   
   for ONIOM refer to:
   * C. Plett, A. Katbashev, S. Ehlert, S. Grimme, M. Bursch,
     Phys. Chem. Chem. Phys., 2023, 25, 17860-17868. DOI: 10.1039/D3CP02178E
   
   for DIPRO refer to:
   * J. Kohn, N. Gildemeister, S. Grimme, D. Fazzi, A. Hansen,
     J. Chem. Phys., 2023, just accepted.
   
   for PTB refer to:
   * S. Grimme, M. Mueller, A. Hansen, J. Chem. Phys., 2023, 158, 124111.
     DOI: 10.1063/5.0137838
   
   with help from (in alphabetical order)
   P. Atkinson, C. Bannwarth, F. Bohle, G. Brandenburg, E. Caldeweyher
   M. Checinski, S. Dohm, S. Ehlert, S. Ehrlich, I. Gerasimov, C. Hölzer
   A. Katbashev, J. Kohn, J. Koopman, C. Lavigne, S. Lehtola, F. März, M. Müller,
   F. Musil, H. Neugebauer, J. Pisarek, C. Plett, P. Pracht, F. Pultar,
   J. Seibert, P. Shushkov, S. Spicher, M. Stahn, M. Steiner, T. Strunk,
   J. Stückrath, T. Rose, and J. Unsleber
   
 * started run on 2026/09/27 at 21:41:07.782     
   ID    Z sym.   atoms
    1    6 C      1, 3, 5-7, 10, 11, 14
    2    7 N      2, 4, 9, 13
    3    8 O      8, 12
    4    1 H      15-24

           -------------------------------------------------
          |                Calculation Setup                |
           -------------------------------------------------

          program call               : xtb input.xyz --gfn 2 --alpb acetonitrile --chrg 0 --uhf 0 --opt tight --json --parallel 1 --norestart
          coordinate file            : input.xyz
          omp threads                :                     1


           -------------------------------------------------
          |                 G F N 2 - x T B                 |
           -------------------------------------------------

        Reference                      10.1021/acs.jctc.8b01176
      * Hamiltonian:
        H0-scaling (s, p, d)           1.850000    2.230000    2.230000
        zeta-weighting                 0.500000
      * Dispersion:
        s8                             2.700000
        a1                             0.520000
        a2                             5.000000
        s9                             5.000000
      * Repulsion:
        kExp                           1.500000    1.000000
        rExp                           1.000000
      * Coulomb:
        alpha                          2.000000
        third order                    shell-resolved
        anisotropic                    true
        a3                             3.000000
        a5                             4.000000
        cn-shift                       1.200000
        cn-exp                         4.000000
        max-rad                        5.000000

      * Solvation model:               ALPB
        Solvent                        acetonitrile
        Parameter file                 internal GFN2-xTB/ALPB
        Dielectric constant                3.7500E+01
        Reference state                gsolv [1 M gas/solution]
        Free energy shift                  5.1987E-03 Eh       3.2622E+00 kcal/mol
        Temperature                        2.9815E+02 K
        Density                            7.8600E-01 kg/L
        Solvent mass                       4.1050E+01 g/mol
        Interaction kernel             P16
        Born radius scaling (c1)           1.7214E+00
        Born radii integrator          GBOBC
        Born offset                        0.0000E+00 a0       0.0000E+00 AA
        H-bond correction              true
        Ion screening                  false
        Surface tension                    1.0000E-05 Eh       1.5569E+01 dyn/cm
        Grid points                               230 per atom

          ...................................................
          :                      SETUP                      :
          :.................................................:
          :  # basis functions                  66          :
          :  # atomic orbitals                  66          :
          :  # shells                           38          :
          :  # electrons                        74          :
          :  max. iterations                   250          :
          :  Hamiltonian                  GFN2-xTB          :
          :  restarted?                      false          :
          :  GBSA solvation                   true          :
          :  PC potential                    false          :
          :  electronic temp.          300.0000000     K    :
          :  accuracy                    1.0000000          :
          :  -> integral cutoff          0.2500000E+02      :
          :  -> integral neglect         0.1000000E-07      :
          :  -> SCF convergence          0.1000000E-05 Eh   :
          :  -> wf. convergence          0.1000000E-03 e    :
          :  Broyden damping             0.4000000          :
          :  net charge                          0          :
          :  unpaired electrons                  0          :
          ...................................................

 iter      E             dE          RMSdq      gap      omega  full diag
   1    -42.5143236 -0.425143E+02  0.436E+00    3.29       0.0  T
   2    -42.6549240 -0.140600E+00  0.257E+00    3.34       1.0  T
   3    -42.6613310 -0.640702E-02  0.137E+00    3.39       1.0  T
   4    -42.6610385  0.292471E-03  0.294E-01    3.32       1.0  T
   5    -42.6623050 -0.126647E-02  0.888E-02    3.34       1.0  T
   6    -42.6623404 -0.354003E-04  0.448E-02    3.35       1.0  T
   7    -42.6623483 -0.788918E-05  0.209E-02    3.35       1.0  T
   8    -42.6623498 -0.148822E-05  0.451E-03    3.35       4.5  T
   9    -42.6623498 -0.491281E-07  0.227E-03    3.35       9.0  T
  10    -42.6623498 -0.438778E-08  0.713E-04    3.35      28.6  T
  11    -42.6623498 -0.419477E-08  0.278E-04    3.35      73.3  T

   *** convergence criteria satisfied after 11 iterations ***

         #    Occupation            Energy/Eh            Energy/eV
      -------------------------------------------------------------
         1        2.0000           -0.7217892             -19.6409
       ...           ...                  ...                  ...
        31        2.0000           -0.4541185             -12.3572
        32        2.0000           -0.4375838             -11.9073
        33        2.0000           -0.4337723             -11.8035
        34        2.0000           -0.4249274             -11.5629
        35        2.0000           -0.4202652             -11.4360
        36        2.0000           -0.4050951             -11.0232
        37        2.0000           -0.3910234             -10.6403 (HOMO)
        38                         -0.2679690              -7.2918 (LUMO)
        39                         -0.2321360              -6.3167
        40                         -0.2094414              -5.6992
        41                         -0.1252664              -3.4087
        42                         -0.0582959              -1.5863
       ...                                ...                  ...
        66                          0.6539559              17.7950
      -------------------------------------------------------------
                  HL-Gap            0.1230544 Eh            3.3485 eV
             Fermi-level           -0.3294962 Eh           -8.9660 eV

 SCC (total)                   0 d,  0 h,  0 min,  0.029 sec
 SCC setup                      ...        0 min,  0.001 sec (  2.516%)
 Dispersion                     ...        0 min,  0.000 sec (  0.750%)
 classical contributions        ...        0 min,  0.000 sec (  0.185%)
 integral evaluation            ...        0 min,  0.004 sec ( 13.097%)
 iterations                     ...        0 min,  0.013 sec ( 44.661%)
 molecular gradient             ...        0 min,  0.011 sec ( 37.253%)
 printout                       ...        0 min,  0.000 sec (  1.463%)

         :::::::::::::::::::::::::::::::::::::::::::::::::::::
         ::                     SUMMARY                     ::
         :::::::::::::::::::::::::::::::::::::::::::::::::::::
         :: total energy             -42.170070970422 Eh    ::
         :: total w/o Gsasa/hb       -42.154932845789 Eh    ::
         :: gradient norm              0.068910740993 Eh/a0 ::
         :: HOMO-LUMO gap              3.348480811611 eV    ::
         ::.................................................::
         :: SCC energy               -42.662253407392 Eh    ::
         :: -> isotropic ES            0.093936589184 Eh    ::
         :: -> anisotropic ES          0.002777864451 Eh    ::
         :: -> anisotropic XC          0.014549029514 Eh    ::
         :: -> dispersion             -0.023194700979 Eh    ::
         :: -> Gsolv                  -0.023807534577 Eh    ::
         ::    -> Gelec               -0.008669409944 Eh    ::
         ::    -> Gsasa               -0.019015277512 Eh    ::
         ::    -> Ghb                 -0.001321501872 Eh    ::
         ::    -> Gshift               0.005198654751 Eh    ::
         :: repulsion energy           0.492182436970 Eh    ::
         :: add. restraining           0.000000000000 Eh    ::
         :: total charge               0.000000000000 e     ::
         :::::::::::::::::::::::::::::::::::::::::::::::::::::

      ----------------------------------------------------------- 
     |                   =====================                   |
     |                        A N C O P T                        |
     |                   =====================                   |
     |               Approximate Normal Coordinate               |
     |                Rational Function Optimizer                |
      ----------------------------------------------------------- 
      ----------------------------------------------------------- 
     |                   =====================                   |
     |                        A N C O P T                        |
     |                   =====================                   |
     |               Approximate Normal Coordinate               |
     |                Rational Function Optimizer                |
      ----------------------------------------------------------- 

          ...................................................
          :                      SETUP                      :
          :.................................................:
          :   optimization level             tight          :
          :   max. optcycles                   200          :
          :   ANC micro-cycles                  20          :
          :   degrees of freedom                66          :
          :.................................................:
          :   RF solver                   davidson          :
          :   write xtbopt.log                true          :
          :   linear?                        false          :
          :   energy convergence         0.1000000E-05 Eh   :
          :   grad. convergence          0.8000000E-03 Eh/α :
          :   maxmium RF displ.          1.0000000          :
          :   Hlow (freq-cutoff)         0.1000000E-01      :
          :   Hmax (freq-cutoff)         5.0000000          :
          :   S6 in model hess.         20.0000000          :
          ...................................................

generating ANC from exact Hessian ...
Using Lindh-Hessian (1995)
 Shifting diagonal of input Hessian by    6.8628141194936858E-003
 Lowest  eigenvalues of input Hessian
    0.000000    0.000000    0.000000    0.000000    0.000000    0.000000
    0.010000    0.010904    0.012226    0.016107    0.016197    0.018276
    0.018982    0.020023    0.026597    0.030823    0.041809    0.050333
 Highest eigenvalues
    1.987861    2.070357    2.109977    2.158237    2.362484    2.439618


........................................................................
.............................. CYCLE    1 ..............................
........................................................................

 iter      E             dE          RMSdq      gap      omega  full diag
   1    -42.6623498 -0.426623E+02  0.121E-04    3.35       0.0  T
   2    -42.6623498 -0.264748E-10  0.767E-05    3.35     266.2  T
   3    -42.6623498 -0.525802E-12  0.368E-05    3.35     554.5  T
     SCC iter.                  ...        0 min,  0.005 sec
     gradient                   ...        0 min,  0.013 sec
 * total energy  :   -42.1700710 Eh     change       -0.2348628E-09 Eh
   gradient norm :     0.0689108 Eh/α   predicted     0.0000000E+00 (-100.00%)
   displ. norm   :     0.2249309 α      lambda       -0.8036782E-02
   maximum displ.:     0.1162194 α      in ANC's #13, #32, #20, ...

........................................................................
.............................. CYCLE    2 ..............................
........................................................................

 iter      E             dE          RMSdq      gap      omega  full diag
   1    -42.6796832 -0.426797E+02  0.221E-01    3.38       0.0  T
   2    -42.6798003 -0.117168E-03  0.136E-01    3.39       1.0  T
   3    -42.6797938  0.653126E-05  0.646E-02    3.39       1.0  T
   4    -42.6798318 -0.380241E-04  0.141E-02    3.39       1.4  T
   5    -42.6798345 -0.272232E-05  0.501E-03    3.39       4.1  T
   6    -42.6798346 -0.677917E-07  0.239E-03    3.39       8.5  T
   7    -42.6798346 -0.123012E-07  0.680E-04    3.39      30.0  T
   8    -42.6798346 -0.132059E-08  0.298E-04    3.39      68.5  T
     SCC iter.                  ...        0 min,  0.008 sec
     gradient                   ...        0 min,  0.008 sec
 * total energy  :   -42.1753820 Eh     change       -0.5311022E-02 Eh
   gradient norm :     0.0263142 Eh/α   predicted    -0.4222289E-02 ( -20.50%)
   displ. norm   :     0.1336866 α      lambda       -0.1535282E-02
   maximum displ.:     0.0804421 α      in ANC's #13, #7, #17, ...

........................................................................
.............................. CYCLE    3 ..............................
........................................................................

 iter      E             dE          RMSdq      gap      omega  full diag
   1    -42.6861566 -0.426862E+02  0.111E-01    3.41       0.0  T
   2    -42.6861916 -0.349977E-04  0.664E-02    3.41       1.0  T
   3    -42.6861931 -0.150178E-05  0.352E-02    3.41       1.0  T
   4    -42.6862011 -0.798870E-05  0.802E-03    3.41       2.5  T
   5    -42.6862020 -0.957386E-06  0.218E-03    3.41       9.4  T
   6    -42.6862020 -0.619933E-08  0.107E-03    3.41      19.1  T
   7    -42.6862020 -0.459443E-08  0.243E-04    3.41      83.9  T
   8    -42.6862020 -0.167546E-09  0.133E-04    3.41     153.0  T
     SCC iter.                  ...        0 min,  0.008 sec
     gradient                   ...        0 min,  0.009 sec
 * total energy  :   -42.1762289 Eh     change       -0.8469464E-03 Eh
   gradient norm :     0.0094644 Eh/α   predicted    -0.7814075E-03 (  -7.74%)
   displ. norm   :     0.0351090 α      lambda       -0.1012914E-03
   maximum displ.:     0.0232585 α      in ANC's #7, #4, #17, ...

........................................................................
.............................. CYCLE    4 ..............................
........................................................................

 iter      E             dE          RMSdq      gap      omega  full diag
   1    -42.6863251 -0.426863E+02  0.250E-02    3.42       0.0  T
   2    -42.6863274 -0.226880E-05  0.132E-02    3.42       1.5  T
   3    -42.6863274  0.201893E-08  0.753E-03    3.42       2.7  T
   4    -42.6863277 -0.288610E-06  0.197E-03    3.42      10.3  T
   5    -42.6863277 -0.501998E-07  0.393E-04    3.42      51.9  T
   6    -42.6863277 -0.155132E-08  0.198E-04    3.42     103.3  T
     SCC iter.                  ...        0 min,  0.006 sec
     gradient                   ...        0 min,  0.012 sec
 * total energy  :   -42.1763007 Eh     change       -0.7171794E-04 Eh
   gradient norm :     0.0051634 Eh/α   predicted    -0.5070917E-04 ( -29.29%)
   displ. norm   :     0.0307430 α      lambda       -0.4752247E-04
   maximum displ.:     0.0209939 α      in ANC's #7, #4, #17, ...

........................................................................
.............................. CYCLE    5 ..............................
........................................................................

 iter      E             dE          RMSdq      gap      omega  full diag
   1    -42.6859854 -0.426860E+02  0.234E-02    3.42       0.0  T
   2    -42.6859869 -0.157897E-05  0.126E-02    3.41       1.6  T
   3    -42.6859869  0.315463E-07  0.593E-03    3.41       3.4  T
   4    -42.6859870 -0.141383E-06  0.150E-03    3.41      13.6  T
   5    -42.6859871 -0.378445E-07  0.412E-04    3.41      49.5  T
   6    -42.6859871 -0.217222E-08  0.169E-04    3.41     120.7  T
     SCC iter.                  ...        0 min,  0.006 sec
     gradient                   ...        0 min,  0.009 sec
 * total energy  :   -42.1763278 Eh     change       -0.2711509E-04 Eh
   gradient norm :     0.0020822 Eh/α   predicted    -0.2379283E-04 ( -12.25%)
   displ. norm   :     0.0070328 α      lambda       -0.4028017E-05
   maximum displ.:     0.0033178 α      in ANC's #7, #5, #1, ...

........................................................................
.............................. CYCLE    6 ..............................
........................................................................

 iter      E             dE          RMSdq      gap      omega  full diag
   1    -42.6858952 -0.426859E+02  0.555E-03    3.41       0.0  T
   2    -42.6858953 -0.117514E-06  0.308E-03    3.41       6.6  T
   3    -42.6858953 -0.370549E-08  0.139E-03    3.41      14.7  T
   4    -42.6858953 -0.183624E-08  0.195E-04    3.41     104.7  T
   5    -42.6858953 -0.545462E-09  0.800E-05    3.41     255.1  T
     SCC iter.                  ...        0 min,  0.006 sec
     gradient                   ...        0 min,  0.008 sec
 * total energy  :   -42.1763305 Eh     change       -0.2739810E-05 Eh
   gradient norm :     0.0010200 Eh/α   predicted    -0.2015302E-05 ( -26.44%)
   displ. norm   :     0.0088059 α      lambda       -0.1497230E-05
   maximum displ.:     0.0061068 α      in ANC's #5, #1, #2, ...

........................................................................
.............................. CYCLE    7 ..............................
........................................................................

 iter      E             dE          RMSdq      gap      omega  full diag
   1    -42.6858909 -0.426859E+02  0.468E-03    3.41       0.0  T
   2    -42.6858910 -0.921668E-07  0.260E-03    3.41       7.9  T
   3    -42.6858910 -0.307736E-08  0.119E-03    3.41      17.1  T
   4    -42.6858910 -0.114109E-08  0.174E-04    3.41     117.6  T
   5    -42.6858910 -0.287301E-09  0.640E-05    3.41     318.9  T
     SCC iter.                  ...        0 min,  0.005 sec
     gradient                   ...        0 min,  0.008 sec
 * total energy  :   -42.1763315 Eh     change       -0.9498555E-06 Eh
   gradient norm :     0.0004502 Eh/α   predicted    -0.7574100E-06 ( -20.26%)
   displ. norm   :     0.0039052 α      lambda       -0.2244908E-06
   maximum displ.:     0.0026929 α      in ANC's #5, #1, #4, ...

   *** GEOMETRY OPTIMIZATION CONVERGED AFTER 7 ITERATIONS ***

------------------------------------------------------------------------
 total energy gain   :        -0.0062605 Eh       -3.9285 kcal/mol
 total RMSD          :         0.0795653 a0        0.0421 Å
 total power (kW/mol):        -2.3481311 (step) -106.6130 (real)
------------------------------------------------------------------------

 ANCopt (total)                0 d,  0 h,  0 min,  0.154 sec
 optimizer setup                ...        0 min,  0.000 sec (  0.181%)
 model hessian                  ...        0 min,  0.004 sec (  2.893%)
 ANC generation                 ...        0 min,  0.001 sec (  0.774%)
 coordinate transformation      ...        0 min,  0.000 sec (  0.046%)
 single point calculation       ...        0 min,  0.144 sec ( 93.555%)
 optimization log               ...        0 min,  0.002 sec (  1.125%)
 hessian update                 ...        0 min,  0.000 sec (  0.093%)
 rational function              ...        0 min,  0.001 sec (  0.871%)

================
 final structure:
================
24
 xtb: 6.7.1 (edcfbbe)
C            3.34678494034860       -0.00599281765541       -0.12140858056510
N            2.07894513765777       -0.66368852954968        0.03250058514807
C            1.84822430402151       -1.96783893508702        0.25372065064309
N            0.56889926428655       -2.27104563941638        0.35242244623599
C           -0.07141591166263       -1.09502324768816        0.18456146705508
C            0.84030125637567       -0.06544104613441       -0.01864934653143
C            0.43311264081526        1.28787757107213       -0.22709327031871
O            1.15830593693504        2.25342602662935       -0.41256045098551
N           -0.96003476568375        1.40627581375174       -0.19662110654533
C           -1.52666387763443        2.73204366171111       -0.39797964088542
C           -1.89217020517337        0.39615169858349        0.00608490100867
O           -3.08483781051330        0.64363476457231        0.00952805794108
N           -1.41426421540278       -0.87733346432150        0.19883139575415
C           -2.32466072999986       -1.98426147466302        0.41535750752433
H            4.14325928228757       -0.74080726888004       -0.02922474051023
H            3.39855292475386        0.47823772698343       -1.09727865055748
H            3.46064828591523        0.76388377768286        0.64258992819450
H            2.63085595106321       -2.69436813885676        0.34253849872067
H           -0.70067504859260        3.42441713572043       -0.54109396225299
H           -2.17569985220449        2.72637479845453       -1.27312405880201
H           -2.11685618692388        3.01666602672665        0.47243873501237
H           -2.11393135223661       -2.44425947127883        1.37978260265946
H           -3.33894883164069       -1.59240726297781        0.39447949571584
H           -2.18773113679189       -2.72652270537901       -0.36980146365910

 Bond Distances (Angstroems)
 ---------------------------
C1-N2=1.4365         C1-H15=1.0876        C1-H16=1.0906        C1-H17=1.0906        N2-C1=1.4365         N2-C3=1.3428         
N2-C6=1.3765         C3-N2=1.3428         C3-N4=1.3185         C3-H18=1.0716        N4-C3=1.3185         N4-C5=1.3495         
C5-N4=1.3495         C5-C6=1.3902         C5-N13=1.3605        C6-N2=1.3765         C6-C5=1.3902         C6-C7=1.4285         
C7-C6=1.4285         C7-O8=1.2217         C7-N9=1.3985         O8-C7=1.2217         N9-C7=1.3985         N9-C10=1.4558        
N9-C11=1.3894        C10-N9=1.4558        C10-H19=1.0873       C10-H20=1.0896       C10-H21=1.0895       C11-N9=1.3894        
C11-O12=1.2181       C11-N13=1.3738       O12-C11=1.2181       N13-C5=1.3605        N13-C11=1.3738       N13-C14=1.4495       
C14-N13=1.4495       C14-H22=1.0891       C14-H23=1.0876       C14-H24=1.0891       H15-C1=1.0876        H16-C1=1.0906        
H17-C1=1.0906        H18-C3=1.0716        H19-C10=1.0873       H20-C10=1.0896       H21-C10=1.0895       H22-C14=1.0891       
H23-C14=1.0876       H24-C14=1.0891       
 C  H  Rav=1.0872 sigma=0.0053  Rmin=1.0716  Rmax=1.0906    10
 C  C  Rav=1.4094 sigma=0.0192  Rmin=1.3902  Rmax=1.4285     2
 N  C  Rav=1.3865 sigma=0.0429  Rmin=1.3185  Rmax=1.4558    11
 O  C  Rav=1.2199 sigma=0.0018  Rmin=1.2181  Rmax=1.2217     2

 selected bond angles (degree)
 --------------------
H15-C1-N2=109.14               H16-C1-N2=109.94               H16-C1-H15=109.94              H17-C1-N2=109.89               
H17-C1-H15=109.95              H17-C1-H16=107.97              C3-N2-C1=127.88                C6-N2-C1=126.24                
C6-N2-C3=105.88                N4-C3-N2=113.73                H18-C3-N2=123.14               H18-C3-N4=123.13               
C5-N4-C3=104.52                C6-C5-N4=110.63                N13-C5-N4=127.33               N13-C5-C6=122.03               
C5-C6-N2=105.24                C7-C6-N2=132.35                C7-C6-C5=122.41                O8-C7-C6=126.99                
N9-C7-C6=111.16                N9-C7-O8=121.85                C10-N9-C7=117.50               C11-N9-C7=127.59               
C11-N9-C10=114.91              H19-C10-N9=107.60              H20-C10-N9=109.77              H20-C10-H19=110.50             
H21-C10-N9=109.77              H21-C10-H19=110.51             H21-C10-H20=108.69             

 selected dihedral angles (degree)
 ---------------------------------
C3-N2-C1-H15=359.91           C3-N2-C1-H16=120.57           C3-N2-C1-H17=239.27           C6-N2-C1-H15=179.87           
C6-N2-C1-H16=300.53           C6-N2-C1-H17= 59.23           N4-C3-N2-C1=179.90            N4-C3-N2-C6=359.94            
H18-C3-N2-C1=359.94           H18-C3-N2-C6=179.98           C5-N4-C3-N2=  0.05            C5-N4-C3-H18=180.00           
C6-C5-N4-C3=  0.00            N13-C5-N4-C3=179.91           C5-C6-N2-C1=180.09            C5-C6-N2-C3=  0.05            
C7-C6-N2-C1=  0.20            C7-C6-N2-C3=180.17            N2-C6-C5-N4=359.97            N2-C6-C5-N13=180.04           
C7-C6-C5-N4=179.87            C7-C6-C5-N13=359.94           O8-C7-C6-N2=359.85            O8-C7-C6-C5=179.98            
N9-C7-C6-N2=179.83            N9-C7-C6-C5=359.96            C10-N9-C7-C6=180.14           C10-N9-C7-O8=  0.12           
C11-N9-C7-C6=  0.14           C11-N9-C7-O8=180.13           H19-C10-N9-C7=359.86          H19-C10-N9-C11=179.86         
H20-C10-N9-C7=120.15          H20-C10-N9-C11=300.15         H21-C10-N9-C7=239.55          H21-C10-N9-C11= 59.55         
           -------------------------------------------------
          |                Final Singlepoint                |
           -------------------------------------------------

          ...................................................
          :                      SETUP                      :
          :.................................................:
          :  # basis functions                  66          :
          :  # atomic orbitals                  66          :
          :  # shells                           38          :
          :  # electrons                        74          :
          :  max. iterations                   250          :
          :  Hamiltonian                  GFN2-xTB          :
          :  restarted?                      false          :
          :  GBSA solvation                   true          :
          :  PC potential                    false          :
          :  electronic temp.          300.0000000     K    :
          :  accuracy                    1.0000000          :
          :  -> integral cutoff          0.2500000E+02      :
          :  -> integral neglect         0.1000000E-07      :
          :  -> SCF convergence          0.1000000E-05 Eh   :
          :  -> wf. convergence          0.1000000E-03 e    :
          :  Broyden damping             0.4000000          :
          :  net charge                          0          :
          :  unpaired electrons                  0          :
          ...................................................

 iter      E             dE          RMSdq      gap      omega  full diag
   1    -42.6858910 -0.426859E+02  0.284E-05    3.41       0.0  T
   2    -42.6858910 -0.845546E-12  0.171E-05    3.41    1193.4  T
   3    -42.6858910  0.241585E-12  0.705E-06    3.41    2894.1  T

   *** convergence criteria satisfied after 3 iterations ***

         #    Occupation            Energy/Eh            Energy/eV
      -------------------------------------------------------------
         1        2.0000           -0.7255732             -19.7439
       ...           ...                  ...                  ...
        31        2.0000           -0.4568601             -12.4318
        32        2.0000           -0.4362058             -11.8698
        33        2.0000           -0.4341982             -11.8151
        34        2.0000           -0.4239291             -11.5357
        35        2.0000           -0.4196651             -11.4197
        36        2.0000           -0.4051992             -11.0260
        37        2.0000           -0.3914825             -10.6528 (HOMO)
        38                         -0.2662420              -7.2448 (LUMO)
        39                         -0.2248978              -6.1198
        40                         -0.2051901              -5.5835
        41                         -0.1256844              -3.4200
        42                         -0.0475923              -1.2951
       ...                                ...                  ...
        66                          0.6781851              18.4544
      -------------------------------------------------------------
                  HL-Gap            0.1252406 Eh            3.4080 eV
             Fermi-level           -0.3288622 Eh           -8.9488 eV

 SCC (total)                   0 d,  0 h,  0 min,  0.017 sec
 SCC setup                      ...        0 min,  0.001 sec (  4.662%)
 Dispersion                     ...        0 min,  0.001 sec (  3.374%)
 classical contributions        ...        0 min,  0.000 sec (  0.502%)
 integral evaluation            ...        0 min,  0.003 sec ( 20.313%)
 iterations                     ...        0 min,  0.003 sec ( 19.073%)
 molecular gradient             ...        0 min,  0.008 sec ( 49.574%)
 printout                       ...        0 min,  0.000 sec (  2.353%)

         :::::::::::::::::::::::::::::::::::::::::::::::::::::
         ::                     SUMMARY                     ::
         :::::::::::::::::::::::::::::::::::::::::::::::::::::
         :: total energy             -42.176331461625 Eh    ::
         :: total w/o Gsasa/hb       -42.161265952041 Eh    ::
         :: gradient norm              0.000449941133 Eh/a0 ::
         :: HOMO-LUMO gap              3.407969069324 eV    ::
         ::.................................................::
         :: SCC energy               -42.685792446044 Eh    ::
         :: -> isotropic ES            0.094489250677 Eh    ::
         :: -> anisotropic ES          0.001776472704 Eh    ::
         :: -> anisotropic XC          0.013625766300 Eh    ::
         :: -> dispersion             -0.023244101928 Eh    ::
         :: -> Gsolv                  -0.023756494806 Eh    ::
         ::    -> Gelec               -0.008690985222 Eh    ::
         ::    -> Gsasa               -0.018929149562 Eh    ::
         ::    -> Ghb                 -0.001335014773 Eh    ::
         ::    -> Gshift               0.005198654751 Eh    ::
         :: repulsion energy           0.509460984419 Eh    ::
         :: add. restraining           0.000000000000 Eh    ::
         :: total charge              -0.000000000000 e     ::
         :::::::::::::::::::::::::::::::::::::::::::::::::::::

           -------------------------------------------------
          |                Property Printout                |
           -------------------------------------------------

    * Orbital Energies and Occupations

         #    Occupation            Energy/Eh            Energy/eV
      -------------------------------------------------------------
         1        2.0000           -0.7255732             -19.7439
       ...           ...                  ...                  ...
        25        2.0000           -0.5044897             -13.7279
        26        2.0000           -0.5023005             -13.6683
        27        2.0000           -0.4981445             -13.5552
        28        2.0000           -0.4955006             -13.4833
        29        2.0000           -0.4783042             -13.0153
        30        2.0000           -0.4776078             -12.9964
        31        2.0000           -0.4568601             -12.4318
        32        2.0000           -0.4362058             -11.8698
        33        2.0000           -0.4341982             -11.8151
        34        2.0000           -0.4239291             -11.5357
        35        2.0000           -0.4196651             -11.4197
        36        2.0000           -0.4051992             -11.0260
        37        2.0000           -0.3914825             -10.6528 (HOMO)
        38                         -0.2662420              -7.2448 (LUMO)
        39                         -0.2248978              -6.1198
        40                         -0.2051901              -5.5835
        41                         -0.1256844              -3.4200
        42                         -0.0475923              -1.2951
        43                          0.0021310               0.0580
        44                          0.0195551               0.5321
        45                          0.0860467               2.3414
        46                          0.0979060               2.6642
        47                          0.1133747               3.0851
        48                          0.1386305               3.7723
       ...                                ...                  ...
        66                          0.6781851              18.4544
      -------------------------------------------------------------
                  HL-Gap            0.1252406 Eh            3.4080 eV
             Fermi-level           -0.3288622 Eh           -8.9488 eV

     #   Z          covCN         q      C6AA      α(0)
     1   6 C        3.689    -0.068    21.994     6.712
     2   7 N        2.835     0.009    21.103     6.823
     3   6 C        3.205     0.086    25.524     8.228
     4   7 N        1.894    -0.286    28.266     7.882
     5   6 C        3.197     0.122    24.830     8.123
     6   6 C        3.119    -0.040    28.805     8.790
     7   6 C        2.764     0.263    22.568     7.780
     8   8 O        0.858    -0.466    23.055     6.438
     9   7 N        2.750    -0.118    23.558     7.209
    10   6 C        3.708    -0.047    21.560     6.637
    11   6 C        2.731     0.314    21.671     7.621
    12   8 O        0.860    -0.477    23.287     6.470
    13   7 N        2.740    -0.072    22.633     7.066
    14   6 C        3.700    -0.061    21.848     6.685
    15   1 H        0.925     0.088     1.902     2.157
    16   1 H        0.924     0.088     1.901     2.156
    17   1 H        0.924     0.088     1.900     2.156
    18   1 H        0.926     0.076     2.019     2.222
    19   1 H        0.925     0.092     1.861     2.133
    20   1 H        0.925     0.073     2.057     2.243
    21   1 H        0.925     0.073     2.055     2.242
    22   1 H        0.925     0.086     1.923     2.168
    23   1 H        0.925     0.094     1.843     2.123
    24   1 H        0.925     0.085     1.925     2.170

 Mol. C6AA /au·bohr⁶  :       6676.352998
 Mol. C8AA /au·bohr⁸  :     153106.982334
 Mol. α(0) /au        :        124.232632


Wiberg/Mayer (AO) data.
largest (>0.10) Wiberg bond orders for each atom

 ---------------------------------------------------------------------------
     #   Z sym  total        # sym  WBO       # sym  WBO       # sym  WBO
 ---------------------------------------------------------------------------
     1   6 C    3.949 --     2 N    0.995    15 H    0.977    17 H    0.968
                            16 H    0.968
     2   7 N    3.659 --     3 C    1.315     6 C    1.154     1 C    0.995
                             4 N    0.104
     3   6 C    3.952 --     4 N    1.468     2 N    1.315    18 H    0.960
     4   7 N    3.006 --     3 C    1.468     5 C    1.295     2 N    0.104
     5   6 C    3.966 --     6 C    1.336     4 N    1.295    13 N    1.138
     6   6 C    3.940 --     5 C    1.336     2 N    1.154     7 C    1.124
     7   6 C    3.957 --     8 O    1.621     6 C    1.124     9 N    1.099
     8   8 O    1.976 --     7 C    1.621     9 N    0.143
     9   7 N    3.547 --    11 C    1.113     7 C    1.099    10 C    0.980
                             8 O    0.143    12 O    0.127
    10   6 C    3.946 --     9 N    0.980    21 H    0.975    20 H    0.975
                            19 H    0.973
    11   6 C    3.961 --    12 O    1.601    13 N    1.145     9 N    1.113
    12   8 O    1.954 --    11 C    1.601    13 N    0.140     9 N    0.127
    13   7 N    3.572 --    11 C    1.145     5 C    1.138    14 C    0.976
                            12 O    0.140
    14   6 C    3.938 --    13 N    0.976    23 H    0.975    22 H    0.973
                            24 H    0.973
    15   1 H    0.992 --     1 C    0.977
    16   1 H    0.992 --     1 C    0.968
    17   1 H    0.992 --     1 C    0.968
    18   1 H    0.993 --     3 C    0.960
    19   1 H    0.991 --    10 C    0.973
    20   1 H    0.994 --    10 C    0.975
    21   1 H    0.994 --    10 C    0.975
    22   1 H    0.991 --    14 C    0.973
    23   1 H    0.991 --    14 C    0.975
    24   1 H    0.991 --    14 C    0.973
 ---------------------------------------------------------------------------

Topologies differ in total number of bonds
Writing topology from bond orders to xtbtopo.mol

molecular dipole:
                 x           y           z       tot (Debye)
 q only:        1.390      -1.285       0.159
   full:        1.644      -1.115       0.122       5.058
molecular quadrupole (traceless):
                xx          xy          yy          xz          yz          zz
 q only:        3.678      -2.243      -1.841       0.169       0.059      -1.837
  q+dip:        2.702      -4.285      -5.511       0.721       1.551       2.808
   full:        2.176      -4.055      -6.322       0.756       1.904       4.146

           -------------------------------------------------
          |                Geometry Summary                 |
           -------------------------------------------------

      molecular mass/u    :      194.1909174
   center of mass at/Å    :       -0.0933891       0.0228104       0.0001597
  moments of inertia/u·Å² :        0.4711413E+03   0.7074775E+03   0.1169149E+04
rotational constants/cm⁻¹ :        0.3578042E-01   0.2382780E-01   0.1441871E-01

 * 25 selected distances

     #   Z          #   Z                                           value/Å
     1   6 C        2   7 N                                       1.4365479
     2   7 N        3   6 C                                       1.3427505
     3   6 C        4   7 N                                       1.3184647
     4   7 N        5   6 C                                       1.3495221
     2   7 N        6   6 C                                       1.3765011
     5   6 C        6   6 C                                       1.3901664
     6   6 C        7   6 C                                       1.4285388
     7   6 C        8   8 O                                       1.2217150
     7   6 C        9   7 N                                       1.3985016
     9   7 N       10   6 C                                       1.4557728 (max)
     9   7 N       11   6 C                                       1.3893586
    11   6 C       12   8 O                                       1.2180788
     5   6 C       13   7 N                                       1.3604537
    11   6 C       13   7 N                                       1.3737941
    13   7 N       14   6 C                                       1.4494811
     1   6 C       15   1 H                                       1.0875761
     1   6 C       16   1 H                                       1.0906337
     1   6 C       17   1 H                                       1.0905819
     3   6 C       18   1 H                                       1.0715623 (min)
    10   6 C       19   1 H                                       1.0872537
    10   6 C       20   1 H                                       1.0895677
    10   6 C       21   1 H                                       1.0894793
    14   6 C       22   1 H                                       1.0890918
    14   6 C       23   1 H                                       1.0875505
    14   6 C       24   1 H                                       1.0891172

 * 4 distinct bonds (by element types)

   Z      Z             #   av. dist./Å        max./Å        min./Å
   1 H    6 C          10     1.0872414     1.0906337     1.0715623
   6 C    6 C           2     1.4093526     1.4285388     1.3901664
   6 C    7 N          11     1.3864680     1.4557728     1.3184647
   6 C    8 O           2     1.2198969     1.2217150     1.2180788


optimized geometry written to: xtbopt.xyz


           -------------------------------------------------
          | TOTAL ENERGY              -42.176331461625 Eh   |
          | GRADIENT NORM               0.000449941133 Eh/α |
          | HOMO-LUMO GAP               3.407969069324 eV   |
           -------------------------------------------------

------------------------------------------------------------------------
 * finished run on 2026/09/27 at 21:41:08.010     
------------------------------------------------------------------------
 total:
 * wall-time:     0 d,  0 h,  0 min,  0.227 sec
 *  cpu-time:     0 d,  0 h,  0 min,  0.047 sec
 * ratio c/w:     0.206 speedup
 SCF:
 * wall-time:     0 d,  0 h,  0 min,  0.029 sec
 *  cpu-time:     0 d,  0 h,  0 min,  0.000 sec
 * ratio c/w:     0.000 speedup
 ANC optimizer:
 * wall-time:     0 d,  0 h,  0 min,  0.175 sec
 *  cpu-time:     0 d,  0 h,  0 min,  0.031 sec
 * ratio c/w:     0.179 speedup

