24
 energy: -42.176331461625 gnorm: 0.000449941133 xtb: 6.7.1 (edcfbbe)
C            3.34678494034860       -0.00599281765541       -0.12140858056510
N            2.07894513765777       -0.66368852954968        0.03250058514807
C            1.84822430402151       -1.96783893508702        0.25372065064309
N            0.56889926428655       -2.27104563941638        0.35242244623599
C           -0.07141591166263       -1.09502324768816        0.18456146705508
C            0.84030125637567       -0.06544104613441       -0.01864934653143
C            0.43311264081526        1.28787757107213       -0.22709327031871
O            1.15830593693504        2.25342602662935       -0.41256045098551
N           -0.96003476568375        1.40627581375174       -0.19662110654533
C           -1.52666387763443        2.73204366171111       -0.39797964088542
C           -1.89217020517337        0.39615169858349        0.00608490100867
O           -3.08483781051330        0.64363476457231        0.00952805794108
N           -1.41426421540278       -0.87733346432150        0.19883139575415
C           -2.32466072999986       -1.98426147466302        0.41535750752433
H            4.14325928228757       -0.74080726888004       -0.02922474051023
H            3.39855292475386        0.47823772698343       -1.09727865055748
H            3.46064828591523        0.76388377768286        0.64258992819450
H            2.63085595106321       -2.69436813885676        0.34253849872067
H           -0.70067504859260        3.42441713572043       -0.54109396225299
H           -2.17569985220449        2.72637479845453       -1.27312405880201
H           -2.11685618692388        3.01666602672665        0.47243873501237
H           -2.11393135223661       -2.44425947127883        1.37978260265946
H           -3.33894883164069       -1.59240726297781        0.39447949571584
H           -2.18773113679189       -2.72652270537901       -0.36980146365910
