33
 energy: -50.029842786604 gnorm: 0.000105804957 xtb: 6.7.1 (edcfbbe)
C           -2.27956565157002        1.76538939913713        1.93590376956502
C           -2.76150883752040        1.75884377989025        0.49881905535740
O           -3.49728266466841        2.61701404889036        0.03404418821468
N           -2.32082461885387        0.70246829768284       -0.20878124280336
C           -2.55459202791200        0.51856938777213       -1.62214760004760
C           -1.23874210646360        0.52202558900749       -2.41820727159269
C           -0.34850111826743       -0.60641024197849       -2.00968336757053
C           -0.29211115493377       -1.85479523051911       -2.56201389105257
N            0.60567549811478       -2.63538399063099       -1.88908249281519
C            1.15573922428769       -1.90165907872312       -0.87716656308046
C            0.57698831442302       -0.60835804198203       -0.91946964559061
C            0.97239222896423        0.35096238035474        0.00976509877275
C            1.91613400926801        0.01256510337367        0.96662428833643
O            2.23873556588600        1.01318197400050        1.85239601755944
C            3.20444284853222        0.75688181867671        2.84512878500996
C            2.47340109220443       -1.27446391474591        0.99884586910921
C            2.10222231756722       -2.23508682640997        0.07966909296267
H           -2.62663728414275        0.87011989597719        2.44632321049744
H           -1.19248066652096        1.78412165032915        1.96355462572838
H           -2.66887884155532        2.64274197352242        2.44417042455691
H           -1.65846680517350        0.07072229510612        0.21643800249468
H           -3.07494333877876       -0.43220256274509       -1.78013418359609
H           -3.19957441108342        1.33782326343335       -1.94728322166198
H           -0.72930105644894        1.47310229706730       -2.25373544407479
H           -1.48137300217304        0.43742224773035       -3.47831650929903
H           -0.83418383371503       -2.24331476805718       -3.40289695132507
H            0.83421385783697       -3.58841048520895       -2.11332995242825
H            0.56998974426300        1.35210742633189       -0.00070490778972
H            2.88526732231254       -0.04462049458122        3.51949876383948
H            3.29659645436387        1.68468092545399        3.40787713288935
H            4.17487771549670        0.50228886362647        2.40688271047131
H            3.20838762696977       -1.52849134558994        1.74557890741789
H            2.54390259929078       -3.21983463619144        0.11143530194409
