18

C      2.307463    0.593546    0.371022
C      2.312665   -0.778438    0.070507
C      1.124101   -1.443046   -0.245985
C     -0.055088   -0.722754   -0.230408
C     -0.053145    0.644050    0.048030
C      1.115385    1.320319    0.352149
C     -1.439125    1.170698   -0.089888
C     -2.233486   -0.148531   -0.108629
N     -1.335092   -1.214212   -0.588477
H      3.242969    1.095747    0.605247
H      3.251902   -1.325800    0.070577
H      1.132038   -2.495620   -0.505294
H      1.111264    2.384603    0.561221
H     -1.546169    1.709156   -1.037181
H     -1.741063    1.809747    0.744173
H     -2.572408   -0.397906    0.905864
H     -3.121059   -0.072240   -0.744958
H     -1.501152   -2.129319   -0.177969
