      -----------------------------------------------------------      
     |                   =====================                   |     
     |                           x T B                           |     
     |                   =====================                   |     
     |                         S. Grimme                         |     
     |          Mulliken Center for Theoretical Chemistry        |     
     |                    University of Bonn                     |     
      -----------------------------------------------------------      

   * xtb version 6.7.1 (edcfbbe) compiled by 'VssAdministrator@runnervm171ch' on 2026-06-10

   xtb is free software: you can redistribute it and/or modify it under
   the terms of the GNU Lesser General Public License as published by
   the Free Software Foundation, either version 3 of the License, or
   (at your option) any later version.
   
   xtb is distributed in the hope that it will be useful,
   but WITHOUT ANY WARRANTY; without even the implied warranty of
   MERCHANTABILITY or FITNESS FOR A PARTICULAR PURPOSE.  See the
   GNU Lesser General Public License for more details.
   
   Cite this work as:
   * C. Bannwarth, E. Caldeweyher, S. Ehlert, A. Hansen, P. Pracht,
     J. Seibert, S. Spicher, S. Grimme, WIREs Comput. Mol. Sci., 2020, 11,
     e01493. DOI: 10.1002/wcms.1493
   
   for GFN2-xTB:
   * C. Bannwarth, S. Ehlert and S. Grimme., J. Chem. Theory Comput., 2019,
     15, 1652-1671. DOI: 10.1021/acs.jctc.8b01176
   for GFN1-xTB:
   * S. Grimme, C. Bannwarth, P. Shushkov, J. Chem. Theory Comput., 2017,
     13, 1989-2009. DOI: 10.1021/acs.jctc.7b00118
   for GFN0-xTB:
   * P. Pracht, E. Caldeweyher, S. Ehlert, S. Grimme, ChemRxiv, 2019, preprint.
     DOI: 10.26434/chemrxiv.8326202.v1
   for GFN-FF:
   * S. Spicher and S. Grimme, Angew. Chem. Int. Ed., 2020, 59, 15665-15673.
     DOI: 10.1002/anie.202004239
   
   for ALPB and GBSA implicit solvation:
   * S. Ehlert, M. Stahn, S. Spicher, S. Grimme, J. Chem. Theory Comput.,
     2021, 17, 4250-4261. DOI: 10.1021/acs.jctc.1c00471
   
   for ddCOSMO and CPCM-X implicit solvation:
   * M. Stahn, S. Ehlert, S. Grimme, J. Phys. Chem. A,
     2023, XX, XXXX-XXXX. DOI: 10.1021/acs.jpca.3c04382
   
   for DFT-D4:
   * E. Caldeweyher, C. Bannwarth and S. Grimme, J. Chem. Phys., 2017,
     147, 034112. DOI: 10.1063/1.4993215
   * E. Caldeweyher, S. Ehlert, A. Hansen, H. Neugebauer, S. Spicher,
     C. Bannwarth and S. Grimme, J. Chem. Phys., 2019, 150, 154122.
     DOI: 10.1063/1.5090222
   * E. Caldeweyher, J.-M. Mewes, S. Ehlert and S. Grimme, Phys. Chem. Chem. Phys.
     2020, 22, 8499-8512. DOI: 10.1039/D0CP00502A
   
   for sTDA-xTB:
   * S. Grimme and C. Bannwarth, J. Chem. Phys., 2016, 145, 054103.
     DOI: 10.1063/1.4959605
   
   in the mass-spec context:
   * V. Asgeirsson, C. Bauer and S. Grimme, Chem. Sci., 2017, 8, 4879.
     DOI: 10.1039/c7sc00601b
   * J. Koopman and S. Grimme, ACS Omega 2019, 4, 12, 15120-15133.
     DOI: 10.1021/acsomega.9b02011
   
   for metadynamics refer to:
   * S. Grimme, J. Chem. Theory Comput., 2019, 155, 2847-2862
     DOI: 10.1021/acs.jctc.9b00143
   
   for SPH calculations refer to:
   * S. Spicher and S. Grimme, J. Chem. Theory Comput., 2021, 17, 1701-1714
     DOI: 10.1021/acs.jctc.0c01306
   
   for ONIOM refer to:
   * C. Plett, A. Katbashev, S. Ehlert, S. Grimme, M. Bursch,
     Phys. Chem. Chem. Phys., 2023, 25, 17860-17868. DOI: 10.1039/D3CP02178E
   
   for DIPRO refer to:
   * J. Kohn, N. Gildemeister, S. Grimme, D. Fazzi, A. Hansen,
     J. Chem. Phys., 2023, just accepted.
   
   for PTB refer to:
   * S. Grimme, M. Mueller, A. Hansen, J. Chem. Phys., 2023, 158, 124111.
     DOI: 10.1063/5.0137838
   
   with help from (in alphabetical order)
   P. Atkinson, C. Bannwarth, F. Bohle, G. Brandenburg, E. Caldeweyher
   M. Checinski, S. Dohm, S. Ehlert, S. Ehrlich, I. Gerasimov, C. Hölzer
   A. Katbashev, J. Kohn, J. Koopman, C. Lavigne, S. Lehtola, F. März, M. Müller,
   F. Musil, H. Neugebauer, J. Pisarek, C. Plett, P. Pracht, F. Pultar,
   J. Seibert, P. Shushkov, S. Spicher, M. Stahn, M. Steiner, T. Strunk,
   J. Stückrath, T. Rose, and J. Unsleber
   
 * started run on 2026/09/27 at 21:41:10.011     
   ID    Z sym.   atoms
    1    6 C      1-8
    2    7 N      9
    3    1 H      10-18

           -------------------------------------------------
          |                Calculation Setup                |
           -------------------------------------------------

          program call               : xtb input.xyz --gfn 2 --alpb acetonitrile --chrg 0 --uhf 0 --opt tight --json --parallel 1 --norestart
          coordinate file            : input.xyz
          omp threads                :                     1


           -------------------------------------------------
          |                 G F N 2 - x T B                 |
           -------------------------------------------------

        Reference                      10.1021/acs.jctc.8b01176
      * Hamiltonian:
        H0-scaling (s, p, d)           1.850000    2.230000    2.230000
        zeta-weighting                 0.500000
      * Dispersion:
        s8                             2.700000
        a1                             0.520000
        a2                             5.000000
        s9                             5.000000
      * Repulsion:
        kExp                           1.500000    1.000000
        rExp                           1.000000
      * Coulomb:
        alpha                          2.000000
        third order                    shell-resolved
        anisotropic                    true
        a3                             3.000000
        a5                             4.000000
        cn-shift                       1.200000
        cn-exp                         4.000000
        max-rad                        5.000000

      * Solvation model:               ALPB
        Solvent                        acetonitrile
        Parameter file                 internal GFN2-xTB/ALPB
        Dielectric constant                3.7500E+01
        Reference state                gsolv [1 M gas/solution]
        Free energy shift                  5.1987E-03 Eh       3.2622E+00 kcal/mol
        Temperature                        2.9815E+02 K
        Density                            7.8600E-01 kg/L
        Solvent mass                       4.1050E+01 g/mol
        Interaction kernel             P16
        Born radius scaling (c1)           1.7214E+00
        Born radii integrator          GBOBC
        Born offset                        0.0000E+00 a0       0.0000E+00 AA
        H-bond correction              true
        Ion screening                  false
        Surface tension                    1.0000E-05 Eh       1.5569E+01 dyn/cm
        Grid points                               230 per atom

          ...................................................
          :                      SETUP                      :
          :.................................................:
          :  # basis functions                  45          :
          :  # atomic orbitals                  45          :
          :  # shells                           27          :
          :  # electrons                        46          :
          :  max. iterations                   250          :
          :  Hamiltonian                  GFN2-xTB          :
          :  restarted?                      false          :
          :  GBSA solvation                   true          :
          :  PC potential                    false          :
          :  electronic temp.          300.0000000     K    :
          :  accuracy                    1.0000000          :
          :  -> integral cutoff          0.2500000E+02      :
          :  -> integral neglect         0.1000000E-07      :
          :  -> SCF convergence          0.1000000E-05 Eh   :
          :  -> wf. convergence          0.1000000E-03 e    :
          :  Broyden damping             0.4000000          :
          :  net charge                          0          :
          :  unpaired electrons                  0          :
          ...................................................

 iter      E             dE          RMSdq      gap      omega  full diag
   1    -25.0316176 -0.250316E+02  0.381E+00    3.46       0.0  T
   2    -25.0452983 -0.136807E-01  0.231E+00    3.77       1.0  T
   3    -25.0434394  0.185892E-02  0.683E-01    3.72       1.0  T
   4    -25.0464450 -0.300562E-02  0.239E-01    3.71       1.0  T
   5    -25.0470432 -0.598211E-03  0.657E-02    3.74       1.0  T
   6    -25.0470575 -0.142858E-04  0.306E-02    3.73       1.0  T
   7    -25.0470593 -0.182272E-05  0.151E-02    3.73       1.6  T
   8    -25.0470607 -0.134790E-05  0.244E-03    3.73       9.7  T
   9    -25.0470607 -0.217808E-07  0.156E-03    3.73      15.1  T
  10    -25.0470607 -0.694309E-08  0.480E-04    3.73      49.1  T
  11    -25.0470607 -0.123313E-08  0.198E-04    3.73     119.3  T

   *** convergence criteria satisfied after 11 iterations ***

         #    Occupation            Energy/Eh            Energy/eV
      -------------------------------------------------------------
         1        2.0000           -0.6552960             -17.8315
       ...           ...                  ...                  ...
        17        2.0000           -0.4609463             -12.5430
        18        2.0000           -0.4460598             -12.1379
        19        2.0000           -0.4256016             -11.5812
        20        2.0000           -0.4175977             -11.3634
        21        2.0000           -0.4119968             -11.2110
        22        2.0000           -0.3895227             -10.5995
        23        2.0000           -0.3513475              -9.5607 (HOMO)
        24                         -0.2142711              -5.8306 (LUMO)
        25                         -0.2056846              -5.5970
        26                         -0.0852489              -2.3197
        27                          0.0272184               0.7406
        28                          0.0674160               1.8345
       ...                                ...                  ...
        45                          0.6696211              18.2213
      -------------------------------------------------------------
                  HL-Gap            0.1370763 Eh            3.7300 eV
             Fermi-level           -0.2828093 Eh           -7.6956 eV

 SCC (total)                   0 d,  0 h,  0 min,  0.018 sec
 SCC setup                      ...        0 min,  0.001 sec (  3.650%)
 Dispersion                     ...        0 min,  0.000 sec (  0.774%)
 classical contributions        ...        0 min,  0.000 sec (  0.234%)
 integral evaluation            ...        0 min,  0.002 sec (  9.972%)
 iterations                     ...        0 min,  0.010 sec ( 54.251%)
 molecular gradient             ...        0 min,  0.005 sec ( 28.594%)
 printout                       ...        0 min,  0.000 sec (  2.425%)

         :::::::::::::::::::::::::::::::::::::::::::::::::::::
         ::                     SUMMARY                     ::
         :::::::::::::::::::::::::::::::::::::::::::::::::::::
         :: total energy             -24.643516207886 Eh    ::
         :: total w/o Gsasa/hb       -24.634183672457 Eh    ::
         :: gradient norm              0.045893804061 Eh/a0 ::
         :: HOMO-LUMO gap              3.730036955609 eV    ::
         ::.................................................::
         :: SCC energy               -25.047016127921 Eh    ::
         :: -> isotropic ES            0.008686047415 Eh    ::
         :: -> anisotropic ES          0.005797025920 Eh    ::
         :: -> anisotropic XC          0.016741859080 Eh    ::
         :: -> dispersion             -0.014814469229 Eh    ::
         :: -> Gsolv                  -0.009880803778 Eh    ::
         ::    -> Gelec               -0.000548268348 Eh    ::
         ::    -> Gsasa               -0.013832940883 Eh    ::
         ::    -> Ghb                 -0.000698249297 Eh    ::
         ::    -> Gshift               0.005198654751 Eh    ::
         :: repulsion energy           0.403499920035 Eh    ::
         :: add. restraining           0.000000000000 Eh    ::
         :: total charge               0.000000000000 e     ::
         :::::::::::::::::::::::::::::::::::::::::::::::::::::

      ----------------------------------------------------------- 
     |                   =====================                   |
     |                        A N C O P T                        |
     |                   =====================                   |
     |               Approximate Normal Coordinate               |
     |                Rational Function Optimizer                |
      ----------------------------------------------------------- 
      ----------------------------------------------------------- 
     |                   =====================                   |
     |                        A N C O P T                        |
     |                   =====================                   |
     |               Approximate Normal Coordinate               |
     |                Rational Function Optimizer                |
      ----------------------------------------------------------- 

          ...................................................
          :                      SETUP                      :
          :.................................................:
          :   optimization level             tight          :
          :   max. optcycles                   200          :
          :   ANC micro-cycles                  20          :
          :   degrees of freedom                48          :
          :.................................................:
          :   RF solver                   davidson          :
          :   write xtbopt.log                true          :
          :   linear?                        false          :
          :   energy convergence         0.1000000E-05 Eh   :
          :   grad. convergence          0.8000000E-03 Eh/α :
          :   maxmium RF displ.          1.0000000          :
          :   Hlow (freq-cutoff)         0.1000000E-01      :
          :   Hmax (freq-cutoff)         5.0000000          :
          :   S6 in model hess.         20.0000000          :
          ...................................................

generating ANC from exact Hessian ...
Using Lindh-Hessian (1995)
 Shifting diagonal of input Hessian by    3.8015000959464784E-003
 Lowest  eigenvalues of input Hessian
    0.000000    0.000000    0.000000    0.000000    0.000000    0.000000
    0.010000    0.010526    0.018536    0.023792    0.025605    0.033062
    0.043488    0.050205    0.052756    0.062073    0.064060    0.069966
 Highest eigenvalues
    1.440868    1.608778    1.636390    1.871032    1.978978    2.038616


........................................................................
.............................. CYCLE    1 ..............................
........................................................................

 iter      E             dE          RMSdq      gap      omega  full diag
   1    -25.0470607 -0.250471E+02  0.823E-05    3.73       0.0  T
   2    -25.0470607 -0.370193E-10  0.477E-05    3.73     494.2  T
   3    -25.0470607 -0.159837E-10  0.281E-05    3.73     837.6  T
     SCC iter.                  ...        0 min,  0.002 sec
     gradient                   ...        0 min,  0.004 sec
 * total energy  :   -24.6435162 Eh     change       -0.6851764E-10 Eh
   gradient norm :     0.0458942 Eh/α   predicted     0.0000000E+00 (-100.00%)
   displ. norm   :     0.2065303 α      lambda       -0.5663232E-02
   maximum displ.:     0.1032905 α      in ANC's #10, #7, #24, ...

........................................................................
.............................. CYCLE    2 ..............................
........................................................................

 iter      E             dE          RMSdq      gap      omega  full diag
   1    -25.0618374 -0.250618E+02  0.279E-01    3.72       0.0  T
   2    -25.0618610 -0.236575E-04  0.161E-01    3.74       1.0  T
   3    -25.0618287  0.323065E-04  0.658E-02    3.74       1.0  T
   4    -25.0618723 -0.435820E-04  0.703E-03    3.74       3.4  T
   5    -25.0618725 -0.145114E-06  0.350E-03    3.75       6.7  T
   6    -25.0618725 -0.144609E-07  0.146E-03    3.74      16.1  T
   7    -25.0618725 -0.137498E-07  0.319E-04    3.74      73.8  T
   8    -25.0618725 -0.172783E-09  0.205E-04    3.74     115.2  T
     SCC iter.                  ...        0 min,  0.003 sec
     gradient                   ...        0 min,  0.004 sec
 * total energy  :   -24.6469718 Eh     change       -0.3455639E-02 Eh
   gradient norm :     0.0206074 Eh/α   predicted    -0.2952398E-02 ( -14.56%)
   displ. norm   :     0.1347330 α      lambda       -0.1239460E-02
   maximum displ.:     0.0572202 α      in ANC's #1, #2, #7, ...

........................................................................
.............................. CYCLE    3 ..............................
........................................................................

 iter      E             dE          RMSdq      gap      omega  full diag
   1    -25.0668061 -0.250668E+02  0.125E-01    3.70       0.0  T
   2    -25.0668478 -0.417080E-04  0.706E-02    3.73       1.0  T
   3    -25.0668543 -0.649342E-05  0.435E-02    3.73       1.0  T
   4    -25.0668613 -0.699238E-05  0.681E-03    3.73       3.5  T
   5    -25.0668615 -0.252883E-06  0.250E-03    3.73       9.4  T
   6    -25.0668616 -0.114739E-07  0.145E-03    3.73      16.2  T
   7    -25.0668616 -0.829850E-08  0.285E-04    3.73      82.6  T
   8    -25.0668616 -0.602842E-09  0.165E-04    3.73     143.3  T
     SCC iter.                  ...        0 min,  0.003 sec
     gradient                   ...        0 min,  0.004 sec
 * total energy  :   -24.6478257 Eh     change       -0.8538737E-03 Eh
   gradient norm :     0.0126225 Eh/α   predicted    -0.6309816E-03 ( -26.10%)
   displ. norm   :     0.1387690 α      lambda       -0.6617015E-03
   maximum displ.:     0.0779469 α      in ANC's #1, #2, #11, ...

........................................................................
.............................. CYCLE    4 ..............................
........................................................................

 iter      E             dE          RMSdq      gap      omega  full diag
   1    -25.0677747 -0.250678E+02  0.115E-01    3.66       0.0  T
   2    -25.0678252 -0.505177E-04  0.649E-02    3.71       1.0  T
   3    -25.0678369 -0.116891E-04  0.396E-02    3.70       1.0  T
   4    -25.0678417 -0.473563E-05  0.712E-03    3.70       3.3  T
   5    -25.0678419 -0.264487E-06  0.276E-03    3.70       8.5  T
   6    -25.0678419 -0.860462E-08  0.151E-03    3.70      15.6  T
   7    -25.0678420 -0.103413E-07  0.271E-04    3.70      86.8  T
   8    -25.0678420 -0.585107E-09  0.154E-04    3.70     152.8  T
     SCC iter.                  ...        0 min,  0.004 sec
     gradient                   ...        0 min,  0.005 sec
 * total energy  :   -24.6482695 Eh     change       -0.4437530E-03 Eh
   gradient norm :     0.0108360 Eh/α   predicted    -0.3372236E-03 ( -24.01%)
   displ. norm   :     0.1082375 α      lambda       -0.3088823E-03
   maximum displ.:     0.0664278 α      in ANC's #1, #2, #11, ...

........................................................................
.............................. CYCLE    5 ..............................
........................................................................

 iter      E             dE          RMSdq      gap      omega  full diag
   1    -25.0679818 -0.250680E+02  0.790E-02    3.66       0.0  T
   2    -25.0680010 -0.192086E-04  0.462E-02    3.68       1.0  T
   3    -25.0680049 -0.393472E-05  0.278E-02    3.68       1.0  T
   4    -25.0680078 -0.285880E-05  0.444E-03    3.68       5.3  T
   5    -25.0680079 -0.104118E-06  0.195E-03    3.68      12.1  T
   6    -25.0680079 -0.201486E-08  0.960E-04    3.68      24.6  T
   7    -25.0680079 -0.536961E-08  0.160E-04    3.68     147.5  T
     SCC iter.                  ...        0 min,  0.005 sec
     gradient                   ...        0 min,  0.004 sec
 * total energy  :   -24.6484849 Eh     change       -0.2154566E-03 Eh
   gradient norm :     0.0075326 Eh/α   predicted    -0.1562492E-03 ( -27.48%)
   displ. norm   :     0.1008459 α      lambda       -0.1482009E-03
   maximum displ.:     0.0691006 α      in ANC's #1, #2, #3, ...

........................................................................
.............................. CYCLE    6 ..............................
........................................................................

 iter      E             dE          RMSdq      gap      omega  full diag
   1    -25.0682451 -0.250682E+02  0.582E-02    3.65       0.0  T
   2    -25.0682496 -0.444076E-05  0.342E-02    3.66       1.0  T
   3    -25.0682487  0.846867E-06  0.187E-02    3.66       1.3  T
   4    -25.0682514 -0.262386E-05  0.256E-03    3.66       9.2  T
   5    -25.0682514 -0.210797E-07  0.130E-03    3.66      18.1  T
   6    -25.0682514 -0.738943E-09  0.482E-04    3.66      48.9  T
   7    -25.0682514 -0.183356E-08  0.101E-04    3.66     234.1  T
     SCC iter.                  ...        0 min,  0.004 sec
     gradient                   ...        0 min,  0.004 sec
 * total energy  :   -24.6485823 Eh     change       -0.9740174E-04 Eh
   gradient norm :     0.0036299 Eh/α   predicted    -0.7485550E-04 ( -23.15%)
   displ. norm   :     0.0754217 α      lambda       -0.4268373E-04
   maximum displ.:     0.0578692 α      in ANC's #1, #2, #3, ...

........................................................................
.............................. CYCLE    7 ..............................
........................................................................

 iter      E             dE          RMSdq      gap      omega  full diag
   1    -25.0685586 -0.250686E+02  0.366E-02    3.65       0.0  T
   2    -25.0685592 -0.576580E-06  0.214E-02    3.66       1.1  T
   3    -25.0685586  0.568804E-06  0.814E-03    3.66       2.9  T
   4    -25.0685595 -0.809369E-06  0.126E-03    3.66      18.7  T
   5    -25.0685595 -0.212892E-08  0.630E-04    3.66      37.4  T
   6    -25.0685595 -0.582936E-09  0.174E-04    3.66     135.8  T
     SCC iter.                  ...        0 min,  0.003 sec
     gradient                   ...        0 min,  0.005 sec
 * total energy  :   -24.6486107 Eh     change       -0.2837565E-04 Eh
   gradient norm :     0.0018467 Eh/α   predicted    -0.2146280E-04 ( -24.36%)
   displ. norm   :     0.0617763 α      lambda       -0.1263318E-04
   maximum displ.:     0.0502846 α      in ANC's #1, #2, #3, ...

........................................................................
.............................. CYCLE    8 ..............................
........................................................................

 iter      E             dE          RMSdq      gap      omega  full diag
   1    -25.0692033 -0.250692E+02  0.268E-02    3.65       0.0  T
   2    -25.0692034 -0.108168E-06  0.156E-02    3.65       1.5  T
   3    -25.0692033  0.307556E-07  0.197E-03    3.65      12.0  T
   4    -25.0692034 -0.568649E-07  0.725E-04    3.65      32.5  T
   5    -25.0692034 -0.418088E-08  0.306E-04    3.65      77.1  T
     SCC iter.                  ...        0 min,  0.003 sec
     gradient                   ...        0 min,  0.004 sec
 * total energy  :   -24.6486204 Eh     change       -0.9714975E-05 Eh
   gradient norm :     0.0015022 Eh/α   predicted    -0.6326037E-05 ( -34.88%)
   displ. norm   :     0.0191410 α      lambda       -0.3170051E-05
   maximum displ.:     0.0150770 α      in ANC's #1, #2, #3, ...

........................................................................
.............................. CYCLE    9 ..............................
........................................................................

 iter      E             dE          RMSdq      gap      omega  full diag
   1    -25.0691125 -0.250691E+02  0.868E-03    3.65       0.0  T
   2    -25.0691125 -0.954228E-08  0.511E-03    3.65       4.6  T
   3    -25.0691125  0.120134E-07  0.102E-03    3.65      23.1  T
   4    -25.0691125 -0.148539E-07  0.165E-04    3.65     142.9  T
   5    -25.0691125 -0.150909E-09  0.767E-05    3.65     307.4  T
     SCC iter.                  ...        0 min,  0.003 sec
     gradient                   ...        0 min,  0.004 sec
 * total energy  :   -24.6486235 Eh     change       -0.3078075E-05 Eh
   gradient norm :     0.0004711 Eh/α   predicted    -0.1586495E-05 ( -48.46%)
   displ. norm   :     0.0308724 α      lambda       -0.3762901E-05
   maximum displ.:     0.0177372 α      in ANC's #1, #5, #2, ...

........................................................................
.............................. CYCLE   10 ..............................
........................................................................

 iter      E             dE          RMSdq      gap      omega  full diag
   1    -25.0691308 -0.250691E+02  0.122E-02    3.66       0.0  T
   2    -25.0691309 -0.823382E-07  0.704E-03    3.65       3.3  T
   3    -25.0691309  0.707196E-07  0.293E-03    3.65       8.0  T
   4    -25.0691310 -0.101012E-06  0.381E-04    3.65      61.9  T
   5    -25.0691310 -0.627473E-09  0.199E-04    3.65     118.6  T
     SCC iter.                  ...        0 min,  0.003 sec
     gradient                   ...        0 min,  0.004 sec
 * total energy  :   -24.6486270 Eh     change       -0.3513606E-05 Eh
   gradient norm :     0.0005522 Eh/α   predicted    -0.1884335E-05 ( -46.37%)
   displ. norm   :     0.0281028 α      lambda       -0.1854956E-05
   maximum displ.:     0.0159148 α      in ANC's #2, #3, #1, ...

........................................................................
.............................. CYCLE   11 ..............................
........................................................................

 iter      E             dE          RMSdq      gap      omega  full diag
   1    -25.0690284 -0.250690E+02  0.811E-03    3.65       0.0  T
   2    -25.0690284 -0.874466E-08  0.478E-03    3.65       4.9  T
   3    -25.0690284  0.257551E-08  0.595E-04    3.65      39.6  T
   4    -25.0690284 -0.460516E-08  0.206E-04    3.65     114.7  T
     SCC iter.                  ...        0 min,  0.003 sec
     gradient                   ...        0 min,  0.004 sec
 * total energy  :   -24.6486289 Eh     change       -0.1924927E-05 Eh
   gradient norm :     0.0003789 Eh/α   predicted    -0.9287090E-06 ( -51.75%)
   displ. norm   :     0.0216461 α      lambda       -0.1043150E-05
   maximum displ.:     0.0139418 α      in ANC's #3, #2, #5, ...

........................................................................
.............................. CYCLE   12 ..............................
........................................................................

 iter      E             dE          RMSdq      gap      omega  full diag
   1    -25.0690783 -0.250691E+02  0.666E-03    3.65       0.0  T
   2    -25.0690783 -0.944267E-08  0.390E-03    3.65       6.0  T
   3    -25.0690783  0.824769E-08  0.764E-04    3.65      30.8  T
   4    -25.0690783 -0.111573E-07  0.197E-04    3.65     119.8  T
     SCC iter.                  ...        0 min,  0.002 sec
     gradient                   ...        0 min,  0.004 sec
 * total energy  :   -24.6486299 Eh     change       -0.9389004E-06 Eh
   gradient norm :     0.0001618 Eh/α   predicted    -0.5214579E-06 ( -44.46%)
   displ. norm   :     0.0086736 α      lambda       -0.2355679E-06
   maximum displ.:     0.0063033 α      in ANC's #2, #3, #5, ...

   *** GEOMETRY OPTIMIZATION CONVERGED AFTER 12 ITERATIONS ***

------------------------------------------------------------------------
 total energy gain   :        -0.0051137 Eh       -3.2089 kcal/mol
 total RMSD          :         0.1751634 a0        0.0927 Å
 total power (kW/mol):        -1.1188283 (step) -106.0012 (real)
------------------------------------------------------------------------

 ANCopt (total)                0 d,  0 h,  0 min,  0.127 sec
 optimizer setup                ...        0 min,  0.000 sec (  0.198%)
 model hessian                  ...        0 min,  0.003 sec (  2.384%)
 ANC generation                 ...        0 min,  0.001 sec (  0.469%)
 coordinate transformation      ...        0 min,  0.000 sec (  0.068%)
 single point calculation       ...        0 min,  0.117 sec ( 92.343%)
 optimization log               ...        0 min,  0.002 sec (  1.373%)
 hessian update                 ...        0 min,  0.000 sec (  0.204%)
 rational function              ...        0 min,  0.003 sec (  2.125%)

================
 final structure:
================
18
 xtb: 6.7.1 (edcfbbe)
C            2.32998156213545        0.59447232842378        0.31549050094988
C            2.32938912071061       -0.76693255633483        0.06584298558346
C            1.14969244561304       -1.45006701507219       -0.19648799573026
C           -0.03514791020258       -0.73195297207935       -0.20198580277514
C           -0.03673139312855        0.64587954479348        0.05301062655681
C            1.13680610881663        1.31302547636568        0.30836440060565
C           -1.45136383737733        1.15183611709933       -0.02789976489593
C           -2.27346908176385       -0.14908297642063       -0.11561987003765
N           -1.30624403868678       -1.17213957810494       -0.49324805991739
H            3.26046870962686        1.10369088666135        0.51948986518988
H            3.26307991151265       -1.31155510254931        0.07767980997343
H            1.15592422833679       -2.51303994102957       -0.38841399837915
H            1.13674774029794        2.37542618766219        0.50687839661846
H           -1.58277419563041        1.76210056757162       -0.92445332890586
H           -1.72761301493166        1.75682388435203        0.83577830937440
H           -2.73694054219423       -0.38119380797264        0.85377634374823
H           -3.06422244398079       -0.09237035888342       -0.86795569647754
H           -1.54758336915382       -2.13492068448258       -0.32024572148134

 Bond Distances (Angstroems)
 ---------------------------
C1-C2=1.3841         C1-C6=1.3929         C1-H10=1.0802        C2-C1=1.3841         C2-C3=1.3882         C2-H11=1.0810        
C3-C2=1.3882         C3-C4=1.3855         C3-H12=1.0802        C4-C3=1.3855         C4-C5=1.4012         C4-N9=1.3763         
C5-C4=1.4012         C5-C6=1.3739         C5-C7=1.5046         C6-C1=1.3929         C6-C5=1.3739         C6-H13=1.0808        
C7-C5=1.5046         C7-C8=1.5414         C7-H14=1.0925        C7-H15=1.0901        C8-C7=1.5414         C8-N9=1.4577         
C8-H16=1.0993        C8-H17=1.0929        N9-C4=1.3763         N9-C8=1.4577         N9-H18=1.0075        H10-C1=1.0802        
H11-C2=1.0810        H12-C3=1.0802        H13-C6=1.0808        H14-C7=1.0925        H15-C7=1.0901        H16-C8=1.0993        
H17-C8=1.0929        H18-N9=1.0075        
 C  H  Rav=1.0871 sigma=0.0070  Rmin=1.0802  Rmax=1.0993     8
 C  C  Rav=1.4215 sigma=0.0598  Rmin=1.3739  Rmax=1.5414     8
 N  H  Rav=1.0075 sigma=0.0000  Rmin=1.0075  Rmax=1.0075     1
 N  C  Rav=1.4170 sigma=0.0407  Rmin=1.3763  Rmax=1.4577     2

 selected bond angles (degree)
 --------------------
C6-C1-C2=120.41                H10-C1-C2=119.88               H10-C1-C6=119.72               C3-C2-C1=121.23                
H11-C2-C1=119.55               H11-C2-C3=119.22               C4-C3-C2=118.19                H12-C3-C2=120.86               
H12-C3-C4=120.95               C5-C4-C3=120.66                N9-C4-C3=128.67                N9-C4-C5=110.61                
C6-C5-C4=120.69                C7-C5-C4=108.78                C7-C5-C6=130.53                C5-C6-C1=118.83                
H13-C6-C1=120.41               H13-C6-C5=120.76               C8-C7-C5=102.75                H14-C7-C5=110.19               
H14-C7-C8=111.14               H15-C7-C5=112.48               H15-C7-C8=112.23               H15-C7-H14=108.04              
N9-C8-C7=104.67                H16-C8-C7=110.66               H16-C8-N9=111.10               H17-C8-C7=112.41               
H17-C8-N9=109.77               H17-C8-H16=108.24              C8-N9-C4=109.48                H18-N9-C4=119.37               
H18-N9-C8=117.86               

 selected dihedral angles (degree)
 ---------------------------------
C3-C2-C1-C6=  0.00            C3-C2-C1-H10=179.85           H11-C2-C1-C6=180.18           H11-C2-C1-H10=  0.04          
C4-C3-C2-C1=359.97            C4-C3-C2-H11=179.79           H12-C3-C2-C1=180.13           H12-C3-C2-H11=359.95          
C5-C4-C3-C2=359.90            C5-C4-C3-H12=179.75           N9-C4-C3-C2=176.72            N9-C4-C3-H12=356.56           
C6-C5-C4-C3=  0.25            C6-C5-C4-N9=182.91            C7-C5-C4-C3=179.64            C7-C5-C4-N9=  2.29            
C5-C6-C1-C2=  0.16            C5-C6-C1-H10=180.30           H13-C6-C1-C2=179.77           H13-C6-C1-H10=359.92          
C1-C6-C5-C4=359.72            C1-C6-C5-C7=180.49            H13-C6-C5-C4=180.11           H13-C6-C5-C7=  0.88           
C8-C7-C5-C4=  9.52            C8-C7-C5-C6=188.82            H14-C7-C5-C4=251.02           H14-C7-C5-C6= 70.32           
H15-C7-C5-C4=130.41           H15-C7-C5-C6=309.71           N9-C8-C7-C5=342.90            N9-C8-C7-H14=100.73           
N9-C8-C7-H15=221.84           H16-C8-C7-C5=102.67           H16-C8-C7-H14=220.49          H16-C8-C7-H15=341.61          
H17-C8-C7-C5=223.82           H17-C8-C7-H14=341.65          H17-C8-C7-H15=102.76          C8-N9-C4-C3=168.71            
C8-N9-C4-C5=345.79            H18-N9-C4-C3= 28.55           H18-N9-C4-C5=205.62           C4-N9-C8-C7= 19.64            
C4-N9-C8-H16=260.17           C4-N9-C8-H17=140.49           H18-N9-C8-C7=160.48           H18-N9-C8-H16= 41.01          
H18-N9-C8-H17=281.34          
           -------------------------------------------------
          |                Final Singlepoint                |
           -------------------------------------------------

          ...................................................
          :                      SETUP                      :
          :.................................................:
          :  # basis functions                  45          :
          :  # atomic orbitals                  45          :
          :  # shells                           27          :
          :  # electrons                        46          :
          :  max. iterations                   250          :
          :  Hamiltonian                  GFN2-xTB          :
          :  restarted?                      false          :
          :  GBSA solvation                   true          :
          :  PC potential                    false          :
          :  electronic temp.          300.0000000     K    :
          :  accuracy                    1.0000000          :
          :  -> integral cutoff          0.2500000E+02      :
          :  -> integral neglect         0.1000000E-07      :
          :  -> SCF convergence          0.1000000E-05 Eh   :
          :  -> wf. convergence          0.1000000E-03 e    :
          :  Broyden damping             0.4000000          :
          :  net charge                          0          :
          :  unpaired electrons                  0          :
          ...................................................

 iter      E             dE          RMSdq      gap      omega  full diag
   1    -25.0690783 -0.250691E+02  0.873E-05    3.65       0.0  T
   2    -25.0690783 -0.612843E-11  0.516E-05    3.65     456.6  T
   3    -25.0690783  0.286349E-11  0.249E-05    3.65     948.4  T

   *** convergence criteria satisfied after 3 iterations ***

         #    Occupation            Energy/Eh            Energy/eV
      -------------------------------------------------------------
         1        2.0000           -0.6553515             -17.8330
       ...           ...                  ...                  ...
        17        2.0000           -0.4612401             -12.5510
        18        2.0000           -0.4510132             -12.2727
        19        2.0000           -0.4236019             -11.5268
        20        2.0000           -0.4165389             -11.3346
        21        2.0000           -0.4104827             -11.1698
        22        2.0000           -0.3871077             -10.5337
        23        2.0000           -0.3420625              -9.3080 (HOMO)
        24                         -0.2077867              -5.6542 (LUMO)
        25                         -0.1965519              -5.3485
        26                         -0.0760024              -2.0681
        27                          0.0266734               0.7258
        28                          0.0788775               2.1464
       ...                                ...                  ...
        45                          0.7007621              19.0687
      -------------------------------------------------------------
                  HL-Gap            0.1342758 Eh            3.6538 eV
             Fermi-level           -0.2749246 Eh           -7.4811 eV

 SCC (total)                   0 d,  0 h,  0 min,  0.012 sec
 SCC setup                      ...        0 min,  0.001 sec (  4.929%)
 Dispersion                     ...        0 min,  0.000 sec (  1.012%)
 classical contributions        ...        0 min,  0.000 sec (  0.315%)
 integral evaluation            ...        0 min,  0.002 sec ( 13.354%)
 iterations                     ...        0 min,  0.003 sec ( 21.959%)
 molecular gradient             ...        0 min,  0.006 sec ( 52.468%)
 printout                       ...        0 min,  0.001 sec (  5.804%)

         :::::::::::::::::::::::::::::::::::::::::::::::::::::
         ::                     SUMMARY                     ::
         :::::::::::::::::::::::::::::::::::::::::::::::::::::
         :: total energy             -24.648629878475 Eh    ::
         :: total w/o Gsasa/hb       -24.639458313850 Eh    ::
         :: gradient norm              0.000164182413 Eh/a0 ::
         :: HOMO-LUMO gap              3.653830169023 eV    ::
         ::.................................................::
         :: SCC energy               -25.069035558372 Eh    ::
         :: -> isotropic ES            0.008357517252 Eh    ::
         :: -> anisotropic ES          0.006054550535 Eh    ::
         :: -> anisotropic XC          0.015124591812 Eh    ::
         :: -> dispersion             -0.014799698705 Eh    ::
         :: -> Gsolv                  -0.009965231771 Eh    ::
         ::    -> Gelec               -0.000793667146 Eh    ::
         ::    -> Gsasa               -0.013660926658 Eh    ::
         ::    -> Ghb                 -0.000709292717 Eh    ::
         ::    -> Gshift               0.005198654751 Eh    ::
         :: repulsion energy           0.420405679897 Eh    ::
         :: add. restraining           0.000000000000 Eh    ::
         :: total charge               0.000000000000 e     ::
         :::::::::::::::::::::::::::::::::::::::::::::::::::::

           -------------------------------------------------
          |                Property Printout                |
           -------------------------------------------------

    * Orbital Energies and Occupations

         #    Occupation            Energy/Eh            Energy/eV
      -------------------------------------------------------------
         1        2.0000           -0.6553515             -17.8330
       ...           ...                  ...                  ...
        11        2.0000           -0.5069249             -13.7941
        12        2.0000           -0.4979206             -13.5491
        13        2.0000           -0.4750539             -12.9269
        14        2.0000           -0.4715848             -12.8325
        15        2.0000           -0.4688392             -12.7578
        16        2.0000           -0.4623450             -12.5810
        17        2.0000           -0.4612401             -12.5510
        18        2.0000           -0.4510132             -12.2727
        19        2.0000           -0.4236019             -11.5268
        20        2.0000           -0.4165389             -11.3346
        21        2.0000           -0.4104827             -11.1698
        22        2.0000           -0.3871077             -10.5337
        23        2.0000           -0.3420625              -9.3080 (HOMO)
        24                         -0.2077867              -5.6542 (LUMO)
        25                         -0.1965519              -5.3485
        26                         -0.0760024              -2.0681
        27                          0.0266734               0.7258
        28                          0.0788775               2.1464
        29                          0.0953482               2.5946
        30                          0.1321905               3.5971
        31                          0.1347280               3.6661
        32                          0.1513752               4.1191
        33                          0.1610663               4.3828
        34                          0.1829263               4.9777
       ...                                ...                  ...
        45                          0.7007621              19.0687
      -------------------------------------------------------------
                  HL-Gap            0.1342758 Eh            3.6538 eV
             Fermi-level           -0.2749246 Eh           -7.4811 eV

     #   Z          covCN         q      C6AA      α(0)
     1   6 C        2.921    -0.052    29.284     8.874
     2   6 C        2.922    -0.038    28.935     8.821
     3   6 C        2.914    -0.068    29.685     8.934
     4   6 C        2.979     0.067    26.498     8.444
     5   6 C        3.023    -0.014    28.329     8.731
     6   6 C        2.916    -0.044    29.088     8.844
     7   6 C        3.835    -0.066    21.739     6.633
     8   6 C        3.796     0.009    20.424     6.435
     9   7 N        2.718    -0.202    25.390     7.484
    10   1 H        0.926     0.019     2.745     2.591
    11   1 H        0.926     0.021     2.712     2.575
    12   1 H        0.926     0.021     2.725     2.581
    13   1 H        0.926     0.023     2.690     2.565
    14   1 H        0.924     0.049     2.333     2.389
    15   1 H        0.925     0.044     2.397     2.421
    16   1 H        0.923     0.025     2.652     2.547
    17   1 H        0.924     0.044     2.402     2.423
    18   1 H        0.860     0.160     1.333     1.809

 Mol. C6AA /au·bohr⁶  :       3630.698257
 Mol. C8AA /au·bohr⁸  :      86457.121863
 Mol. α(0) /au        :         95.100754


Wiberg/Mayer (AO) data.
largest (>0.10) Wiberg bond orders for each atom

 ---------------------------------------------------------------------------
     #   Z sym  total        # sym  WBO       # sym  WBO       # sym  WBO
 ---------------------------------------------------------------------------
     1   6 C    3.990 --     2 C    1.452     6 C    1.397    10 H    0.972
     2   6 C    3.992 --     1 C    1.452     3 C    1.430    11 H    0.972
                             5 C    0.103
     3   6 C    3.986 --     2 C    1.430     4 C    1.372    12 H    0.970
     4   6 C    3.973 --     3 C    1.372     5 C    1.298     9 N    1.150
     5   6 C    3.985 --     6 C    1.470     4 C    1.298     7 C    1.008
                             2 C    0.103
     6   6 C    3.992 --     5 C    1.470     1 C    1.397    13 H    0.970
     7   6 C    3.996 --     5 C    1.008     8 C    1.001    15 H    0.972
                            14 H    0.965
     8   6 C    3.980 --     7 C    1.001     9 N    0.999    17 H    0.975
                            16 H    0.974
     9   7 N    3.301 --     4 C    1.150     8 C    0.999    18 H    0.946
    10   1 H    0.999 --     1 C    0.972
    11   1 H    0.999 --     2 C    0.972
    12   1 H    0.999 --     3 C    0.970
    13   1 H    0.999 --     6 C    0.970
    14   1 H    0.998 --     7 C    0.965
    15   1 H    0.998 --     7 C    0.972
    16   1 H    0.999 --     8 C    0.974
    17   1 H    0.997 --     8 C    0.975
    18   1 H    0.974 --     9 N    0.946
 ---------------------------------------------------------------------------

Topologies differ in total number of bonds
Writing topology from bond orders to xtbtopo.mol

molecular dipole:
                 x           y           z       tot (Debye)
 q only:       -0.796      -0.106       0.012
   full:       -0.855      -0.225       0.183       2.296
molecular quadrupole (traceless):
                xx          xy          yy          xz          yz          zz
 q only:        0.855       0.681       1.319       0.065      -0.021      -2.174
  q+dip:        1.751       1.214       3.624      -0.055       0.100      -5.375
   full:        1.076       1.200       2.748      -0.492      -0.378      -3.825

           -------------------------------------------------
          |                Geometry Summary                 |
           -------------------------------------------------

      molecular mass/u    :      119.1640572
   center of mass at/Å    :        0.1482828      -0.0717977      -0.0352723
  moments of inertia/u·Å² :        0.1376105E+03   0.3260409E+03   0.4558111E+03
rotational constants/cm⁻¹ :        0.1225025E+00   0.5170405E-01   0.3698382E-01

 * 18 selected distances

     #   Z          #   Z                                           value/Å
     1   6 C        2   6 C                                       1.3841054
     2   6 C        3   6 C                                       1.3882272
     3   6 C        4   6 C                                       1.3854837
     4   6 C        5   6 C                                       1.4012311
     1   6 C        6   6 C                                       1.3928523
     5   6 C        6   6 C                                       1.3738558
     7   6 C        8   6 C                                       1.5414093 (max)
     4   6 C        9   7 N                                       1.3763298
     8   6 C        9   7 N                                       1.4576600
     1   6 C       10   1 H                                       1.0801508
     2   6 C       11   1 H                                       1.0809868
     3   6 C       12   1 H                                       1.0801787
     6   6 C       13   1 H                                       1.0807883
     7   6 C       14   1 H                                       1.0924742
     7   6 C       15   1 H                                       1.0900752
     8   6 C       16   1 H                                       1.0992773
     8   6 C       17   1 H                                       1.0929394
     9   7 N       18   1 H                                       1.0075327 (min)

 * 4 distinct bonds (by element types)

   Z      Z             #   av. dist./Å        max./Å        min./Å
   1 H    6 C           8     1.0871088     1.0992773     1.0801508
   6 C    6 C           7     1.4095950     1.5414093     1.3738558
   1 H    7 N           1     1.0075327     1.0075327     1.0075327
   6 C    7 N           2     1.4169949     1.4576600     1.3763298


optimized geometry written to: xtbopt.xyz


           -------------------------------------------------
          | TOTAL ENERGY              -24.648629878475 Eh   |
          | GRADIENT NORM               0.000164182413 Eh/α |
          | HOMO-LUMO GAP               3.653830169023 eV   |
           -------------------------------------------------

------------------------------------------------------------------------
 * finished run on 2026/09/27 at 21:41:10.193     
------------------------------------------------------------------------
 total:
 * wall-time:     0 d,  0 h,  0 min,  0.182 sec
 *  cpu-time:     0 d,  0 h,  0 min,  0.062 sec
 * ratio c/w:     0.343 speedup
 SCF:
 * wall-time:     0 d,  0 h,  0 min,  0.019 sec
 *  cpu-time:     0 d,  0 h,  0 min,  0.000 sec
 * ratio c/w:     0.000 speedup
 ANC optimizer:
 * wall-time:     0 d,  0 h,  0 min,  0.143 sec
 *  cpu-time:     0 d,  0 h,  0 min,  0.047 sec
 * ratio c/w:     0.328 speedup

