18
 energy: -24.648629878475 gnorm: 0.000164182413 xtb: 6.7.1 (edcfbbe)
C            2.32998156213545        0.59447232842378        0.31549050094988
C            2.32938912071061       -0.76693255633483        0.06584298558346
C            1.14969244561304       -1.45006701507219       -0.19648799573026
C           -0.03514791020258       -0.73195297207935       -0.20198580277514
C           -0.03673139312855        0.64587954479348        0.05301062655681
C            1.13680610881663        1.31302547636568        0.30836440060565
C           -1.45136383737733        1.15183611709933       -0.02789976489593
C           -2.27346908176385       -0.14908297642063       -0.11561987003765
N           -1.30624403868678       -1.17213957810494       -0.49324805991739
H            3.26046870962686        1.10369088666135        0.51948986518988
H            3.26307991151265       -1.31155510254931        0.07767980997343
H            1.15592422833679       -2.51303994102957       -0.38841399837915
H            1.13674774029794        2.37542618766219        0.50687839661846
H           -1.58277419563041        1.76210056757162       -0.92445332890586
H           -1.72761301493166        1.75682388435203        0.83577830937440
H           -2.73694054219423       -0.38119380797264        0.85377634374823
H           -3.06422244398079       -0.09237035888342       -0.86795569647754
H           -1.54758336915382       -2.13492068448258       -0.32024572148134
