      -----------------------------------------------------------      
     |                   =====================                   |     
     |                           x T B                           |     
     |                   =====================                   |     
     |                         S. Grimme                         |     
     |          Mulliken Center for Theoretical Chemistry        |     
     |                    University of Bonn                     |     
      -----------------------------------------------------------      

   * xtb version 6.7.1 (edcfbbe) compiled by 'VssAdministrator@runnervm171ch' on 2026-06-10

   xtb is free software: you can redistribute it and/or modify it under
   the terms of the GNU Lesser General Public License as published by
   the Free Software Foundation, either version 3 of the License, or
   (at your option) any later version.
   
   xtb is distributed in the hope that it will be useful,
   but WITHOUT ANY WARRANTY; without even the implied warranty of
   MERCHANTABILITY or FITNESS FOR A PARTICULAR PURPOSE.  See the
   GNU Lesser General Public License for more details.
   
   Cite this work as:
   * C. Bannwarth, E. Caldeweyher, S. Ehlert, A. Hansen, P. Pracht,
     J. Seibert, S. Spicher, S. Grimme, WIREs Comput. Mol. Sci., 2020, 11,
     e01493. DOI: 10.1002/wcms.1493
   
   for GFN2-xTB:
   * C. Bannwarth, S. Ehlert and S. Grimme., J. Chem. Theory Comput., 2019,
     15, 1652-1671. DOI: 10.1021/acs.jctc.8b01176
   for GFN1-xTB:
   * S. Grimme, C. Bannwarth, P. Shushkov, J. Chem. Theory Comput., 2017,
     13, 1989-2009. DOI: 10.1021/acs.jctc.7b00118
   for GFN0-xTB:
   * P. Pracht, E. Caldeweyher, S. Ehlert, S. Grimme, ChemRxiv, 2019, preprint.
     DOI: 10.26434/chemrxiv.8326202.v1
   for GFN-FF:
   * S. Spicher and S. Grimme, Angew. Chem. Int. Ed., 2020, 59, 15665-15673.
     DOI: 10.1002/anie.202004239
   
   for ALPB and GBSA implicit solvation:
   * S. Ehlert, M. Stahn, S. Spicher, S. Grimme, J. Chem. Theory Comput.,
     2021, 17, 4250-4261. DOI: 10.1021/acs.jctc.1c00471
   
   for ddCOSMO and CPCM-X implicit solvation:
   * M. Stahn, S. Ehlert, S. Grimme, J. Phys. Chem. A,
     2023, XX, XXXX-XXXX. DOI: 10.1021/acs.jpca.3c04382
   
   for DFT-D4:
   * E. Caldeweyher, C. Bannwarth and S. Grimme, J. Chem. Phys., 2017,
     147, 034112. DOI: 10.1063/1.4993215
   * E. Caldeweyher, S. Ehlert, A. Hansen, H. Neugebauer, S. Spicher,
     C. Bannwarth and S. Grimme, J. Chem. Phys., 2019, 150, 154122.
     DOI: 10.1063/1.5090222
   * E. Caldeweyher, J.-M. Mewes, S. Ehlert and S. Grimme, Phys. Chem. Chem. Phys.
     2020, 22, 8499-8512. DOI: 10.1039/D0CP00502A
   
   for sTDA-xTB:
   * S. Grimme and C. Bannwarth, J. Chem. Phys., 2016, 145, 054103.
     DOI: 10.1063/1.4959605
   
   in the mass-spec context:
   * V. Asgeirsson, C. Bauer and S. Grimme, Chem. Sci., 2017, 8, 4879.
     DOI: 10.1039/c7sc00601b
   * J. Koopman and S. Grimme, ACS Omega 2019, 4, 12, 15120-15133.
     DOI: 10.1021/acsomega.9b02011
   
   for metadynamics refer to:
   * S. Grimme, J. Chem. Theory Comput., 2019, 155, 2847-2862
     DOI: 10.1021/acs.jctc.9b00143
   
   for SPH calculations refer to:
   * S. Spicher and S. Grimme, J. Chem. Theory Comput., 2021, 17, 1701-1714
     DOI: 10.1021/acs.jctc.0c01306
   
   for ONIOM refer to:
   * C. Plett, A. Katbashev, S. Ehlert, S. Grimme, M. Bursch,
     Phys. Chem. Chem. Phys., 2023, 25, 17860-17868. DOI: 10.1039/D3CP02178E
   
   for DIPRO refer to:
   * J. Kohn, N. Gildemeister, S. Grimme, D. Fazzi, A. Hansen,
     J. Chem. Phys., 2023, just accepted.
   
   for PTB refer to:
   * S. Grimme, M. Mueller, A. Hansen, J. Chem. Phys., 2023, 158, 124111.
     DOI: 10.1063/5.0137838
   
   with help from (in alphabetical order)
   P. Atkinson, C. Bannwarth, F. Bohle, G. Brandenburg, E. Caldeweyher
   M. Checinski, S. Dohm, S. Ehlert, S. Ehrlich, I. Gerasimov, C. Hölzer
   A. Katbashev, J. Kohn, J. Koopman, C. Lavigne, S. Lehtola, F. März, M. Müller,
   F. Musil, H. Neugebauer, J. Pisarek, C. Plett, P. Pracht, F. Pultar,
   J. Seibert, P. Shushkov, S. Spicher, M. Stahn, M. Steiner, T. Strunk,
   J. Stückrath, T. Rose, and J. Unsleber
   
 * started run on 2026/09/27 at 14:01:47.896     
   ID    Z sym.   atoms
    1    6 C      1-4, 6-9
    2    8 O      5
    3    1 H      10-15

           -------------------------------------------------
          |                Calculation Setup                |
           -------------------------------------------------

          program call               : xtb input.xyz --gfn 2 --alpb acetonitrile --chrg -1 --uhf 1 --scc --json --parallel 1 --norestart
          coordinate file            : input.xyz
          omp threads                :                     1


           -------------------------------------------------
          |                 G F N 2 - x T B                 |
           -------------------------------------------------

        Reference                      10.1021/acs.jctc.8b01176
      * Hamiltonian:
        H0-scaling (s, p, d)           1.850000    2.230000    2.230000
        zeta-weighting                 0.500000
      * Dispersion:
        s8                             2.700000
        a1                             0.520000
        a2                             5.000000
        s9                             5.000000
      * Repulsion:
        kExp                           1.500000    1.000000
        rExp                           1.000000
      * Coulomb:
        alpha                          2.000000
        third order                    shell-resolved
        anisotropic                    true
        a3                             3.000000
        a5                             4.000000
        cn-shift                       1.200000
        cn-exp                         4.000000
        max-rad                        5.000000

      * Solvation model:               ALPB
        Solvent                        acetonitrile
        Parameter file                 internal GFN2-xTB/ALPB
        Dielectric constant                3.7500E+01
        Reference state                gsolv [1 M gas/solution]
        Free energy shift                  5.1987E-03 Eh       3.2622E+00 kcal/mol
        Temperature                        2.9815E+02 K
        Density                            7.8600E-01 kg/L
        Solvent mass                       4.1050E+01 g/mol
        Interaction kernel             P16
        Born radius scaling (c1)           1.7214E+00
        Born radii integrator          GBOBC
        Born offset                        0.0000E+00 a0       0.0000E+00 AA
        H-bond correction              true
        Ion screening                  false
        Surface tension                    1.0000E-05 Eh       1.5569E+01 dyn/cm
        Grid points                               230 per atom

          ...................................................
          :                      SETUP                      :
          :.................................................:
          :  # basis functions                  42          :
          :  # atomic orbitals                  42          :
          :  # shells                           24          :
          :  # electrons                        45          :
          :  max. iterations                   250          :
          :  Hamiltonian                  GFN2-xTB          :
          :  restarted?                      false          :
          :  GBSA solvation                   true          :
          :  PC potential                    false          :
          :  electronic temp.          300.0000000     K    :
          :  accuracy                    1.0000000          :
          :  -> integral cutoff          0.2500000E+02      :
          :  -> integral neglect         0.1000000E-07      :
          :  -> SCF convergence          0.1000000E-05 Eh   :
          :  -> wf. convergence          0.1000000E-03 e    :
          :  Broyden damping             0.4000000          :
          :  net charge                         -1          :
          :  unpaired electrons                  1          :
          ...................................................

 iter      E             dE          RMSdq      gap      omega  full diag
   1    -24.8411410 -0.248411E+02  0.381E+00    0.84       0.0  T
   2    -24.8528172 -0.116762E-01  0.239E+00    0.65       1.0  T
   3    -24.8412059  0.116113E-01  0.135E+00    0.73       1.0  T
   4    -24.8580650 -0.168591E-01  0.447E-01    0.74       1.0  T
   5    -24.8596420 -0.157694E-02  0.114E-01    0.65       1.0  T
   6    -24.8597186 -0.766328E-04  0.493E-02    0.66       1.0  T
   7    -24.8597291 -0.104757E-04  0.222E-02    0.66       1.2  T
   8    -24.8597295 -0.377713E-06  0.105E-02    0.66       2.5  T
   9    -24.8597301 -0.633623E-06  0.471E-03    0.66       5.5  T
  10    -24.8597302 -0.124162E-06  0.109E-03    0.66      23.6  T
  11    -24.8597302 -0.310391E-08  0.679E-04    0.66      38.0  T
  12    -24.8597302 -0.735294E-09  0.255E-04    0.66     101.4  T

   *** convergence criteria satisfied after 12 iterations ***

         #    Occupation            Energy/Eh            Energy/eV
      -------------------------------------------------------------
         1        2.0000           -0.6637733             -18.0622
       ...           ...                  ...                  ...
        17        2.0000           -0.3913288             -10.6486
        18        2.0000           -0.3707234             -10.0879
        19        2.0000           -0.3558475              -9.6831
        20        2.0000           -0.3544337              -9.6446
        21        2.0000           -0.3207787              -8.7288
        22        2.0000           -0.3035773              -8.2608
        23        1.0000           -0.1618331              -4.4037 (HOMO)
        24        0.0000           -0.1375360              -3.7425 (LUMO)
        25                         -0.0945818              -2.5737
        26                         -0.0031371              -0.0854
        27                          0.1369374               3.7263
        28                          0.1705341               4.6405
       ...                                ...                  ...
        42                          0.8040172              21.8784
      -------------------------------------------------------------
                  HL-Gap            0.0242972 Eh            0.6612 eV
             Fermi-level           -0.1911949 Eh           -5.2027 eV

 SCC (total)                   0 d,  0 h,  0 min,  0.025 sec
 SCC setup                      ...        0 min,  0.001 sec (  3.767%)
 Dispersion                     ...        0 min,  0.000 sec (  0.754%)
 classical contributions        ...        0 min,  0.000 sec (  0.165%)
 integral evaluation            ...        0 min,  0.002 sec (  7.576%)
 iterations                     ...        0 min,  0.016 sec ( 64.000%)
 molecular gradient             ...        0 min,  0.006 sec ( 21.917%)
 printout                       ...        0 min,  0.000 sec (  1.707%)

         :::::::::::::::::::::::::::::::::::::::::::::::::::::
         ::                     SUMMARY                     ::
         :::::::::::::::::::::::::::::::::::::::::::::::::::::
         :: total energy             -24.456429707607 Eh    ::
         :: total w/o Gsasa/hb       -24.447425172358 Eh    ::
         :: gradient norm              0.103490771733 Eh/a0 ::
         :: HOMO-LUMO gap              0.661159183444 eV    ::
         ::.................................................::
         :: SCC energy               -24.859713113112 Eh    ::
         :: -> isotropic ES            0.114294094204 Eh    ::
         :: -> anisotropic ES          0.015539120054 Eh    ::
         :: -> anisotropic XC          0.006592709740 Eh    ::
         :: -> dispersion             -0.014415013812 Eh    ::
         :: -> Gsolv                  -0.074140116754 Eh    ::
         ::    -> Gelec               -0.065135581505 Eh    ::
         ::    -> Gsasa               -0.013914734689 Eh    ::
         ::    -> Ghb                 -0.000288455311 Eh    ::
         ::    -> Gshift               0.005198654751 Eh    ::
         :: repulsion energy           0.403283405505 Eh    ::
         :: add. restraining           0.000000000000 Eh    ::
         :: total charge              -1.000000000000 e     ::
         :::::::::::::::::::::::::::::::::::::::::::::::::::::

           -------------------------------------------------
          |                Property Printout                |
           -------------------------------------------------

    * Orbital Energies and Occupations

         #    Occupation            Energy/Eh            Energy/eV
      -------------------------------------------------------------
         1        2.0000           -0.6637733             -18.0622
       ...           ...                  ...                  ...
        11        2.0000           -0.4625620             -12.5870
        12        2.0000           -0.4470621             -12.1652
        13        2.0000           -0.4252544             -11.5718
        14        2.0000           -0.4131094             -11.2413
        15        2.0000           -0.4046399             -11.0108
        16        2.0000           -0.3962184             -10.7817
        17        2.0000           -0.3913288             -10.6486
        18        2.0000           -0.3707234             -10.0879
        19        2.0000           -0.3558475              -9.6831
        20        2.0000           -0.3544337              -9.6446
        21        2.0000           -0.3207787              -8.7288
        22        2.0000           -0.3035773              -8.2608
        23        1.0000           -0.1618331              -4.4037 (HOMO)
        24        0.0000           -0.1375360              -3.7425 (LUMO)
        25                         -0.0945818              -2.5737
        26                         -0.0031371              -0.0854
        27                          0.1369374               3.7263
        28                          0.1705341               4.6405
        29                          0.1789129               4.8685
        30                          0.1992982               5.4232
        31                          0.2256629               6.1406
        32                          0.2502426               6.8094
        33                          0.2611964               7.1075
        34                          0.2829141               7.6985
       ...                                ...                  ...
        42                          0.8040172              21.8784
      -------------------------------------------------------------
                  HL-Gap            0.0242972 Eh            0.6612 eV
             Fermi-level           -0.1911949 Eh           -5.2027 eV

     #   Z          covCN         q      C6AA      α(0)
     1   6 C        2.920    -0.062    29.535     8.912
     2   6 C        2.926    -0.087    30.186     9.010
     3   6 C        2.907    -0.120    31.048     9.137
     4   6 C        3.119     0.102    25.575     8.283
     5   8 O        1.720    -0.292    18.848     5.862
     6   6 C        3.058     0.008    27.778     8.643
     7   6 C        2.981    -0.115    30.916     9.121
     8   6 C        3.094    -0.052    29.162     8.851
     9   6 C        2.912    -0.106    30.688     9.084
    10   1 H        0.926    -0.042     3.896     3.087
    11   1 H        0.926    -0.047     4.029     3.139
    12   1 H        0.926    -0.047     4.023     3.136
    13   1 H        0.926    -0.044     3.944     3.105
    14   1 H        0.926    -0.042     3.892     3.085
    15   1 H        0.926    -0.055     4.205     3.207

 Mol. C6AA /au·bohr⁶  :       3551.424827
 Mol. C8AA /au·bohr⁸  :      86385.228983
 Mol. α(0) /au        :         95.661353


Wiberg/Mayer (AO) data.
largest (>0.10) Wiberg bond orders for each atom

 ---------------------------------------------------------------------------
     #   Z sym  total        # sym  WBO       # sym  WBO       # sym  WBO
 ---------------------------------------------------------------------------
     1   6 C    3.983 --     2 C    1.440     9 C    1.426    10 H    0.972
     2   6 C    3.942 --     1 C    1.440     3 C    1.301    11 H    0.972
     3   6 C    3.907 --     4 C    1.362     2 C    1.301    12 H    0.969
     4   6 C    3.911 --     3 C    1.362     8 C    1.281     5 O    1.064
     5   8 O    2.304 --     4 C    1.064     6 C    1.029
     6   6 C    3.778 --     7 C    1.485     5 O    1.029    13 H    0.967
     7   6 C    3.947 --     6 C    1.485     8 C    1.280    14 H    0.974
     8   6 C    3.971 --     4 C    1.281     7 C    1.280     9 C    1.214
     9   6 C    3.899 --     1 C    1.426     8 C    1.214    15 H    0.969
    10   1 H    0.998 --     1 C    0.972
    11   1 H    0.997 --     2 C    0.972
    12   1 H    0.997 --     3 C    0.969
    13   1 H    0.997 --     6 C    0.967
    14   1 H    0.998 --     7 C    0.974
    15   1 H    0.997 --     9 C    0.969
 ---------------------------------------------------------------------------

Topologies differ in total number of bonds
Writing topology from bond orders to xtbtopo.mol

molecular dipole:
                 x           y           z       tot (Debye)
 q only:       -0.223       0.316       0.033
   full:       -0.169       0.308       0.029       0.896
molecular quadrupole (traceless):
                xx          xy          yy          xz          yz          zz
 q only:       -8.509       0.474      -1.054       1.328      -0.623       9.562
  q+dip:       -6.652       0.494       1.155       0.898      -0.277       5.497
   full:       -7.161       0.573       0.113       1.052      -0.426       7.048


           -------------------------------------------------
          | TOTAL ENERGY              -24.456429707607 Eh   |
          | GRADIENT NORM               0.103490771733 Eh/α |
          | HOMO-LUMO GAP               0.661159183444 eV   |
           -------------------------------------------------

------------------------------------------------------------------------
 * finished run on 2026/09/27 at 14:01:47.951     
------------------------------------------------------------------------
 total:
 * wall-time:     0 d,  0 h,  0 min,  0.054 sec
 *  cpu-time:     0 d,  0 h,  0 min,  0.000 sec
 * ratio c/w:     0.000 speedup
 SCF:
 * wall-time:     0 d,  0 h,  0 min,  0.026 sec
 *  cpu-time:     0 d,  0 h,  0 min,  0.000 sec
 * ratio c/w:     0.000 speedup

