15

C     -1.965832    0.554977    0.171000
C     -1.938039   -0.840370    0.092582
C     -0.729589   -1.533980   -0.031842
C      0.428368   -0.761151   -0.072330
O      1.697619   -1.241592   -0.189426
C      2.528280   -0.166361   -0.189941
C      1.810486    1.002114   -0.074601
C      0.443183    0.627145    0.002654
C     -0.781793    1.306019    0.127454
H     -2.920471    1.068118    0.267385
H     -2.871320   -1.398495    0.128761
H     -0.688287   -2.614290   -0.093969
H      3.581682   -0.392622   -0.277676
H      2.220889    2.001086   -0.049236
H     -0.815175    2.389403    0.189185
