      -----------------------------------------------------------      
     |                   =====================                   |     
     |                           x T B                           |     
     |                   =====================                   |     
     |                         S. Grimme                         |     
     |          Mulliken Center for Theoretical Chemistry        |     
     |                    University of Bonn                     |     
      -----------------------------------------------------------      

   * xtb version 6.7.1 (edcfbbe) compiled by 'VssAdministrator@runnervm171ch' on 2026-06-10

   xtb is free software: you can redistribute it and/or modify it under
   the terms of the GNU Lesser General Public License as published by
   the Free Software Foundation, either version 3 of the License, or
   (at your option) any later version.
   
   xtb is distributed in the hope that it will be useful,
   but WITHOUT ANY WARRANTY; without even the implied warranty of
   MERCHANTABILITY or FITNESS FOR A PARTICULAR PURPOSE.  See the
   GNU Lesser General Public License for more details.
   
   Cite this work as:
   * C. Bannwarth, E. Caldeweyher, S. Ehlert, A. Hansen, P. Pracht,
     J. Seibert, S. Spicher, S. Grimme, WIREs Comput. Mol. Sci., 2020, 11,
     e01493. DOI: 10.1002/wcms.1493
   
   for GFN2-xTB:
   * C. Bannwarth, S. Ehlert and S. Grimme., J. Chem. Theory Comput., 2019,
     15, 1652-1671. DOI: 10.1021/acs.jctc.8b01176
   for GFN1-xTB:
   * S. Grimme, C. Bannwarth, P. Shushkov, J. Chem. Theory Comput., 2017,
     13, 1989-2009. DOI: 10.1021/acs.jctc.7b00118
   for GFN0-xTB:
   * P. Pracht, E. Caldeweyher, S. Ehlert, S. Grimme, ChemRxiv, 2019, preprint.
     DOI: 10.26434/chemrxiv.8326202.v1
   for GFN-FF:
   * S. Spicher and S. Grimme, Angew. Chem. Int. Ed., 2020, 59, 15665-15673.
     DOI: 10.1002/anie.202004239
   
   for ALPB and GBSA implicit solvation:
   * S. Ehlert, M. Stahn, S. Spicher, S. Grimme, J. Chem. Theory Comput.,
     2021, 17, 4250-4261. DOI: 10.1021/acs.jctc.1c00471
   
   for ddCOSMO and CPCM-X implicit solvation:
   * M. Stahn, S. Ehlert, S. Grimme, J. Phys. Chem. A,
     2023, XX, XXXX-XXXX. DOI: 10.1021/acs.jpca.3c04382
   
   for DFT-D4:
   * E. Caldeweyher, C. Bannwarth and S. Grimme, J. Chem. Phys., 2017,
     147, 034112. DOI: 10.1063/1.4993215
   * E. Caldeweyher, S. Ehlert, A. Hansen, H. Neugebauer, S. Spicher,
     C. Bannwarth and S. Grimme, J. Chem. Phys., 2019, 150, 154122.
     DOI: 10.1063/1.5090222
   * E. Caldeweyher, J.-M. Mewes, S. Ehlert and S. Grimme, Phys. Chem. Chem. Phys.
     2020, 22, 8499-8512. DOI: 10.1039/D0CP00502A
   
   for sTDA-xTB:
   * S. Grimme and C. Bannwarth, J. Chem. Phys., 2016, 145, 054103.
     DOI: 10.1063/1.4959605
   
   in the mass-spec context:
   * V. Asgeirsson, C. Bauer and S. Grimme, Chem. Sci., 2017, 8, 4879.
     DOI: 10.1039/c7sc00601b
   * J. Koopman and S. Grimme, ACS Omega 2019, 4, 12, 15120-15133.
     DOI: 10.1021/acsomega.9b02011
   
   for metadynamics refer to:
   * S. Grimme, J. Chem. Theory Comput., 2019, 155, 2847-2862
     DOI: 10.1021/acs.jctc.9b00143
   
   for SPH calculations refer to:
   * S. Spicher and S. Grimme, J. Chem. Theory Comput., 2021, 17, 1701-1714
     DOI: 10.1021/acs.jctc.0c01306
   
   for ONIOM refer to:
   * C. Plett, A. Katbashev, S. Ehlert, S. Grimme, M. Bursch,
     Phys. Chem. Chem. Phys., 2023, 25, 17860-17868. DOI: 10.1039/D3CP02178E
   
   for DIPRO refer to:
   * J. Kohn, N. Gildemeister, S. Grimme, D. Fazzi, A. Hansen,
     J. Chem. Phys., 2023, just accepted.
   
   for PTB refer to:
   * S. Grimme, M. Mueller, A. Hansen, J. Chem. Phys., 2023, 158, 124111.
     DOI: 10.1063/5.0137838
   
   with help from (in alphabetical order)
   P. Atkinson, C. Bannwarth, F. Bohle, G. Brandenburg, E. Caldeweyher
   M. Checinski, S. Dohm, S. Ehlert, S. Ehrlich, I. Gerasimov, C. Hölzer
   A. Katbashev, J. Kohn, J. Koopman, C. Lavigne, S. Lehtola, F. März, M. Müller,
   F. Musil, H. Neugebauer, J. Pisarek, C. Plett, P. Pracht, F. Pultar,
   J. Seibert, P. Shushkov, S. Spicher, M. Stahn, M. Steiner, T. Strunk,
   J. Stückrath, T. Rose, and J. Unsleber
   
 * started run on 2026/09/27 at 14:01:47.596     
   ID    Z sym.   atoms
    1    6 C      1-4, 6-9
    2    8 O      5
    3    1 H      10-15

           -------------------------------------------------
          |                Calculation Setup                |
           -------------------------------------------------

          program call               : xtb input.xyz --gfn 2 --alpb acetonitrile --chrg 0 --uhf 0 --opt tight --json --parallel 1 --norestart
          coordinate file            : input.xyz
          omp threads                :                     1


           -------------------------------------------------
          |                 G F N 2 - x T B                 |
           -------------------------------------------------

        Reference                      10.1021/acs.jctc.8b01176
      * Hamiltonian:
        H0-scaling (s, p, d)           1.850000    2.230000    2.230000
        zeta-weighting                 0.500000
      * Dispersion:
        s8                             2.700000
        a1                             0.520000
        a2                             5.000000
        s9                             5.000000
      * Repulsion:
        kExp                           1.500000    1.000000
        rExp                           1.000000
      * Coulomb:
        alpha                          2.000000
        third order                    shell-resolved
        anisotropic                    true
        a3                             3.000000
        a5                             4.000000
        cn-shift                       1.200000
        cn-exp                         4.000000
        max-rad                        5.000000

      * Solvation model:               ALPB
        Solvent                        acetonitrile
        Parameter file                 internal GFN2-xTB/ALPB
        Dielectric constant                3.7500E+01
        Reference state                gsolv [1 M gas/solution]
        Free energy shift                  5.1987E-03 Eh       3.2622E+00 kcal/mol
        Temperature                        2.9815E+02 K
        Density                            7.8600E-01 kg/L
        Solvent mass                       4.1050E+01 g/mol
        Interaction kernel             P16
        Born radius scaling (c1)           1.7214E+00
        Born radii integrator          GBOBC
        Born offset                        0.0000E+00 a0       0.0000E+00 AA
        H-bond correction              true
        Ion screening                  false
        Surface tension                    1.0000E-05 Eh       1.5569E+01 dyn/cm
        Grid points                               230 per atom

          ...................................................
          :                      SETUP                      :
          :.................................................:
          :  # basis functions                  42          :
          :  # atomic orbitals                  42          :
          :  # shells                           24          :
          :  # electrons                        44          :
          :  max. iterations                   250          :
          :  Hamiltonian                  GFN2-xTB          :
          :  restarted?                      false          :
          :  GBSA solvation                   true          :
          :  PC potential                    false          :
          :  electronic temp.          300.0000000     K    :
          :  accuracy                    1.0000000          :
          :  -> integral cutoff          0.2500000E+02      :
          :  -> integral neglect         0.1000000E-07      :
          :  -> SCF convergence          0.1000000E-05 Eh   :
          :  -> wf. convergence          0.1000000E-03 e    :
          :  Broyden damping             0.4000000          :
          :  net charge                          0          :
          :  unpaired electrons                  0          :
          ...................................................

 iter      E             dE          RMSdq      gap      omega  full diag
   1    -24.6205791 -0.246206E+02  0.479E+00    3.67       0.0  T
   2    -24.6295674 -0.898822E-02  0.294E+00    3.62       1.0  T
   3    -24.6133482  0.162192E-01  0.139E+00    3.69       1.0  T
   4    -24.6341521 -0.208040E-01  0.215E-01    3.63       1.0  T
   5    -24.6343130 -0.160855E-03  0.101E-01    3.63       1.0  T
   6    -24.6343849 -0.719499E-04  0.376E-02    3.63       1.0  T
   7    -24.6343872 -0.227137E-05  0.174E-02    3.63       1.5  T
   8    -24.6343883 -0.111561E-05  0.703E-03    3.63       3.7  T
   9    -24.6343885 -0.143999E-06  0.187E-03    3.63      13.8  T
  10    -24.6343885 -0.289758E-07  0.949E-04    3.63      27.2  T
  11    -24.6343885 -0.174486E-08  0.432E-04    3.63      59.8  T

   *** convergence criteria satisfied after 11 iterations ***

         #    Occupation            Energy/Eh            Energy/eV
      -------------------------------------------------------------
         1        2.0000           -0.7349067             -19.9978
       ...           ...                  ...                  ...
        16        2.0000           -0.4695501             -12.7771
        17        2.0000           -0.4677573             -12.7283
        18        2.0000           -0.4395917             -11.9619
        19        2.0000           -0.4329226             -11.7804
        20        2.0000           -0.4255104             -11.5787
        21        2.0000           -0.3989527             -10.8561
        22        2.0000           -0.3817136             -10.3870 (HOMO)
        23                         -0.2482603              -6.7555 (LUMO)
        24                         -0.2133901              -5.8066
        25                         -0.1776280              -4.8335
        26                         -0.0845986              -2.3020
        27                          0.0643713               1.7516
       ...                                ...                  ...
        42                          0.7105513              19.3351
      -------------------------------------------------------------
                  HL-Gap            0.1334532 Eh            3.6314 eV
             Fermi-level           -0.3149869 Eh           -8.5712 eV

 SCC (total)                   0 d,  0 h,  0 min,  0.022 sec
 SCC setup                      ...        0 min,  0.001 sec (  3.593%)
 Dispersion                     ...        0 min,  0.000 sec (  0.710%)
 classical contributions        ...        0 min,  0.000 sec (  0.181%)
 integral evaluation            ...        0 min,  0.002 sec (  8.263%)
 iterations                     ...        0 min,  0.014 sec ( 63.707%)
 molecular gradient             ...        0 min,  0.004 sec ( 20.222%)
 printout                       ...        0 min,  0.001 sec (  3.153%)

         :::::::::::::::::::::::::::::::::::::::::::::::::::::
         ::                     SUMMARY                     ::
         :::::::::::::::::::::::::::::::::::::::::::::::::::::
         :: total energy             -24.251506516420 Eh    ::
         :: total w/o Gsasa/hb       -24.242421063576 Eh    ::
         :: gradient norm              0.055080583124 Eh/a0 ::
         :: HOMO-LUMO gap              3.631447605986 eV    ::
         ::.................................................::
         :: SCC energy               -24.634371717526 Eh    ::
         :: -> isotropic ES            0.010876169241 Eh    ::
         :: -> anisotropic ES          0.002292409820 Eh    ::
         :: -> anisotropic XC          0.011288283126 Eh    ::
         :: -> dispersion             -0.012630783863 Eh    ::
         :: -> Gsolv                  -0.009540997263 Eh    ::
         ::    -> Gelec               -0.000455544418 Eh    ::
         ::    -> Gsasa               -0.013991355076 Eh    ::
         ::    -> Ghb                 -0.000292752520 Eh    ::
         ::    -> Gshift               0.005198654751 Eh    ::
         :: repulsion energy           0.382865201106 Eh    ::
         :: add. restraining           0.000000000000 Eh    ::
         :: total charge              -0.000000000000 e     ::
         :::::::::::::::::::::::::::::::::::::::::::::::::::::

      ----------------------------------------------------------- 
     |                   =====================                   |
     |                        A N C O P T                        |
     |                   =====================                   |
     |               Approximate Normal Coordinate               |
     |                Rational Function Optimizer                |
      ----------------------------------------------------------- 
      ----------------------------------------------------------- 
     |                   =====================                   |
     |                        A N C O P T                        |
     |                   =====================                   |
     |               Approximate Normal Coordinate               |
     |                Rational Function Optimizer                |
      ----------------------------------------------------------- 

          ...................................................
          :                      SETUP                      :
          :.................................................:
          :   optimization level             tight          :
          :   max. optcycles                   200          :
          :   ANC micro-cycles                  20          :
          :   degrees of freedom                39          :
          :.................................................:
          :   RF solver                   davidson          :
          :   write xtbopt.log                true          :
          :   linear?                        false          :
          :   energy convergence         0.1000000E-05 Eh   :
          :   grad. convergence          0.8000000E-03 Eh/α :
          :   maxmium RF displ.          1.0000000          :
          :   Hlow (freq-cutoff)         0.1000000E-01      :
          :   Hmax (freq-cutoff)         5.0000000          :
          :   S6 in model hess.         20.0000000          :
          ...................................................

generating ANC from exact Hessian ...
Using Lindh-Hessian (1995)
 Shifting diagonal of input Hessian by    2.0751581787905107E-003
 Lowest  eigenvalues of input Hessian
    0.000000    0.000000    0.000000    0.000000    0.000000    0.000000
    0.010000    0.011423    0.019919    0.022739    0.037563    0.042619
    0.061849    0.076047    0.081922    0.085838    0.092843    0.095269
 Highest eigenvalues
    1.639006    1.800578    1.874075    1.908217    2.012655    2.114144


........................................................................
.............................. CYCLE    1 ..............................
........................................................................

 iter      E             dE          RMSdq      gap      omega  full diag
   1    -24.6343885 -0.246344E+02  0.109E-04    3.63       0.0  T
   2    -24.6343885 -0.224674E-10  0.698E-05    3.63     369.7  T
   3    -24.6343885 -0.596145E-11  0.492E-05    3.63     524.3  T
     SCC iter.                  ...        0 min,  0.003 sec
     gradient                   ...        0 min,  0.006 sec
 * total energy  :   -24.2515065 Eh     change       -0.5977334E-09 Eh
   gradient norm :     0.0550810 Eh/α   predicted     0.0000000E+00 (-100.00%)
   displ. norm   :     0.1259422 α      lambda       -0.3658527E-02
   maximum displ.:     0.0592903 α      in ANC's #19, #6, #14, ...

........................................................................
.............................. CYCLE    2 ..............................
........................................................................

 iter      E             dE          RMSdq      gap      omega  full diag
   1    -24.6539738 -0.246540E+02  0.158E-01    3.79       0.0  T
   2    -24.6539822 -0.841593E-05  0.978E-02    3.79       1.0  T
   3    -24.6539711  0.111018E-04  0.344E-02    3.79       1.0  T
   4    -24.6539854 -0.142697E-04  0.490E-03    3.79       5.3  T
   5    -24.6539856 -0.216955E-06  0.204E-03    3.79      12.6  T
   6    -24.6539856 -0.290803E-08  0.817E-04    3.79      31.6  T
   7    -24.6539856 -0.369601E-08  0.262E-04    3.79      98.4  T
     SCC iter.                  ...        0 min,  0.004 sec
     gradient                   ...        0 min,  0.005 sec
 * total energy  :   -24.2538117 Eh     change       -0.2305232E-02 Eh
   gradient norm :     0.0191951 Eh/α   predicted    -0.1858280E-02 ( -19.39%)
   displ. norm   :     0.0501156 α      lambda       -0.4447486E-03
   maximum displ.:     0.0351712 α      in ANC's #6, #15, #19, ...

........................................................................
.............................. CYCLE    3 ..............................
........................................................................

 iter      E             dE          RMSdq      gap      omega  full diag
   1    -24.6586453 -0.246586E+02  0.631E-02    3.85       0.0  T
   2    -24.6586479 -0.265899E-05  0.397E-02    3.85       1.0  T
   3    -24.6586461  0.187552E-05  0.196E-02    3.85       1.3  T
   4    -24.6586492 -0.318076E-05  0.253E-03    3.85      10.2  T
   5    -24.6586493 -0.782486E-07  0.757E-04    3.85      34.1  T
   6    -24.6586493 -0.129275E-08  0.364E-04    3.85      70.9  T
     SCC iter.                  ...        0 min,  0.004 sec
     gradient                   ...        0 min,  0.005 sec
 * total energy  :   -24.2540595 Eh     change       -0.2477525E-03 Eh
   gradient norm :     0.0050939 Eh/α   predicted    -0.2229316E-03 ( -10.02%)
   displ. norm   :     0.0181732 α      lambda       -0.3838386E-04
   maximum displ.:     0.0136862 α      in ANC's #6, #14, #11, ...

........................................................................
.............................. CYCLE    4 ..............................
........................................................................

 iter      E             dE          RMSdq      gap      omega  full diag
   1    -24.6579890 -0.246580E+02  0.253E-02    3.86       0.0  T
   2    -24.6579893 -0.288882E-06  0.150E-02    3.86       1.7  T
   3    -24.6579889  0.401555E-06  0.819E-03    3.86       3.2  T
   4    -24.6579894 -0.576597E-06  0.757E-04    3.86      34.1  T
   5    -24.6579894 -0.424538E-08  0.339E-04    3.86      76.1  T
     SCC iter.                  ...        0 min,  0.007 sec
     gradient                   ...        0 min,  0.008 sec
 * total energy  :   -24.2540856 Eh     change       -0.2611570E-04 Eh
   gradient norm :     0.0022388 Eh/α   predicted    -0.1919698E-04 ( -26.49%)
   displ. norm   :     0.0129978 α      lambda       -0.1154576E-04
   maximum displ.:     0.0100891 α      in ANC's #6, #14, #11, ...

........................................................................
.............................. CYCLE    5 ..............................
........................................................................

 iter      E             dE          RMSdq      gap      omega  full diag
   1    -24.6573668 -0.246574E+02  0.160E-02    3.86       0.0  T
   2    -24.6573670 -0.163719E-06  0.943E-03    3.86       2.7  T
   3    -24.6573669  0.138655E-06  0.533E-03    3.86       4.8  T
   4    -24.6573671 -0.217205E-06  0.610E-04    3.86      42.3  T
   5    -24.6573671 -0.257986E-08  0.253E-04    3.86     102.2  T
     SCC iter.                  ...        0 min,  0.004 sec
     gradient                   ...        0 min,  0.005 sec
 * total energy  :   -24.2540919 Eh     change       -0.6284043E-05 Eh
   gradient norm :     0.0006177 Eh/α   predicted    -0.5775047E-05 (  -8.10%)
   displ. norm   :     0.0036966 α      lambda       -0.5228236E-06
   maximum displ.:     0.0030302 α      in ANC's #6, #11, #14, ...

........................................................................
.............................. CYCLE    6 ..............................
........................................................................

 iter      E             dE          RMSdq      gap      omega  full diag
   1    -24.6573928 -0.246574E+02  0.351E-03    3.85       0.0  T
   2    -24.6573928 -0.142490E-07  0.212E-03    3.85      12.2  T
   3    -24.6573928  0.383008E-08  0.115E-03    3.85      22.4  T
   4    -24.6573928 -0.836316E-08  0.192E-04    3.85     134.2  T
   5    -24.6573928 -0.354916E-09  0.722E-05    3.85     357.8  T
     SCC iter.                  ...        0 min,  0.005 sec
     gradient                   ...        0 min,  0.006 sec
 * total energy  :   -24.2540923 Eh     change       -0.3724933E-06 Eh
   gradient norm :     0.0001837 Eh/α   predicted    -0.2615985E-06 ( -29.77%)
   displ. norm   :     0.0013428 α      lambda       -0.6911080E-07
   maximum displ.:     0.0006596 α      in ANC's #2, #5, #7, ...

   *** GEOMETRY OPTIMIZATION CONVERGED AFTER 6 ITERATIONS ***

------------------------------------------------------------------------
 total energy gain   :        -0.0025858 Eh       -1.6226 kcal/mol
 total RMSD          :         0.0471988 a0        0.0250 Å
 total power (kW/mol):        -1.1314843 (step)  -76.4516 (real)
------------------------------------------------------------------------

 ANCopt (total)                0 d,  0 h,  0 min,  0.089 sec
 optimizer setup                ...        0 min,  0.000 sec (  0.365%)
 model hessian                  ...        0 min,  0.002 sec (  2.165%)
 ANC generation                 ...        0 min,  0.000 sec (  0.502%)
 coordinate transformation      ...        0 min,  0.000 sec (  0.090%)
 single point calculation       ...        0 min,  0.081 sec ( 90.677%)
 optimization log               ...        0 min,  0.003 sec (  3.011%)
 hessian update                 ...        0 min,  0.000 sec (  0.182%)
 rational function              ...        0 min,  0.002 sec (  2.006%)

================
 final structure:
================
15
 xtb: 6.7.1 (edcfbbe)
C           -1.94143675442238        0.55906499850626        0.16888502688967
C           -1.92174727127642       -0.83560776584739        0.09214126822749
C           -0.73760034675253       -1.53502608849802       -0.03164680950544
C            0.43213193521075       -0.79135026010831       -0.07461397601735
O            1.70236529989646       -1.25056117557531       -0.19058809782582
C            2.50425785553041       -0.15680063380858       -0.18731037708189
C            1.80692775251805        0.99679649249174       -0.07421469984067
C            0.42998017694284        0.61678105029077        0.00179383802563
C           -0.77916369738883        1.29835107959189        0.12621043714957
H           -2.89151348381495        1.06340814196820        0.26569456986017
H           -2.85451859279625       -1.37775944295712        0.12952904173587
H           -0.71434581715819       -2.61157846107035       -0.09206307156999
H            3.55772804094658       -0.34210576847848       -0.27293133034290
H            2.20462610945896        1.99051617408180       -0.04797864930847
H           -0.79769020689452        2.37587265941291        0.18709282960413

 Bond Distances (Angstroems)
 ---------------------------
C1-C2=1.3969         C1-C9=1.3781         C1-H10=1.0800        C2-C1=1.3969         C2-C3=1.3808         C2-H11=1.0795        
C3-C2=1.3808         C3-C4=1.3868         C3-H12=1.0785        C4-C3=1.3868         C4-O5=1.3557         C4-C8=1.4102         
O5-C4=1.3557         O5-C6=1.3562         C6-O5=1.3562         C6-C7=1.3527         C6-H13=1.0731        C7-C6=1.3527         
C7-C8=1.4304         C7-H14=1.0707        C8-C4=1.4102         C8-C7=1.4304         C8-C9=1.3936         C9-C1=1.3781         
C9-C8=1.3936         C9-H15=1.0794        H10-C1=1.0800        H11-C2=1.0795        H12-C3=1.0785        H13-C6=1.0731        
H14-C7=1.0707        H15-C9=1.0794        
 C  H  Rav=1.0769 sigma=0.0036  Rmin=1.0707  Rmax=1.0800     6
 C  C  Rav=1.3912 sigma=0.0216  Rmin=1.3527  Rmax=1.4304     8
 O  C  Rav=1.3559 sigma=0.0003  Rmin=1.3557  Rmax=1.3562     2

 selected bond angles (degree)
 --------------------
C9-C1-C2=121.47                H10-C1-C2=118.92               H10-C1-C9=119.62               C3-C2-C1=121.51                
H11-C2-C1=119.16               H11-C2-C3=119.32               C4-C3-C2=117.03                H12-C3-C2=121.95               
H12-C3-C4=121.02               O5-C4-C3=127.69                C8-C4-C3=122.17                C8-C4-O5=110.14                
C6-O5-C4=106.30                C7-C6-O5=112.53                H13-C6-O5=116.17               H13-C6-C7=131.30               
C8-C7-C6=105.91                H14-C7-C6=127.02               H14-C7-C8=127.07               C7-C8-C4=105.12                
C9-C8-C4=119.64                C9-C8-C7=135.24                C8-C9-C1=118.17                H15-C9-C1=121.28               
H15-C9-C8=120.54               

 selected dihedral angles (degree)
 ---------------------------------
C3-C2-C1-C9=359.91            C3-C2-C1-H10=180.03           H11-C2-C1-C9=179.98           H11-C2-C1-H10=  0.10          
C4-C3-C2-C1=  0.09            C4-C3-C2-H11=180.02           H12-C3-C2-C1=180.04           H12-C3-C2-H11=359.97          
O5-C4-C3-C2=179.96            O5-C4-C3-H12=  0.00           C8-C4-C3-C2=359.92            C8-C4-C3-H12=179.97           
C6-O5-C4-C3=180.03            C6-O5-C4-C8=  0.07            C7-C6-O5-C4=  0.00            H13-C6-O5-C4=180.01           
C8-C7-C6-O5=359.96            C8-C7-C6-H13=179.92           H14-C7-C6-O5=180.02           H14-C7-C6-H13=359.98          
C7-C8-C4-C3=179.94            C7-C8-C4-O5=359.91            C9-C8-C4-C3=  0.07            C9-C8-C4-O5=180.04            
C4-C8-C7-C6=  0.07            C4-C8-C7-H14=180.02           C9-C8-C7-C6=179.92            C9-C8-C7-H14=359.86           
C8-C9-C1-C2=  0.08            C8-C9-C1-H10=179.95           H15-C9-C1-C2=180.08           H15-C9-C1-H10=359.96          
C1-C9-C8-C4=359.93            C1-C9-C8-C7=180.11            H15-C9-C8-C4=179.93           H15-C9-C8-C7=  0.10           
           -------------------------------------------------
          |                Final Singlepoint                |
           -------------------------------------------------

          ...................................................
          :                      SETUP                      :
          :.................................................:
          :  # basis functions                  42          :
          :  # atomic orbitals                  42          :
          :  # shells                           24          :
          :  # electrons                        44          :
          :  max. iterations                   250          :
          :  Hamiltonian                  GFN2-xTB          :
          :  restarted?                      false          :
          :  GBSA solvation                   true          :
          :  PC potential                    false          :
          :  electronic temp.          300.0000000     K    :
          :  accuracy                    1.0000000          :
          :  -> integral cutoff          0.2500000E+02      :
          :  -> integral neglect         0.1000000E-07      :
          :  -> SCF convergence          0.1000000E-05 Eh   :
          :  -> wf. convergence          0.1000000E-03 e    :
          :  Broyden damping             0.4000000          :
          :  net charge                          0          :
          :  unpaired electrons                  0          :
          ...................................................

 iter      E             dE          RMSdq      gap      omega  full diag
   1    -24.6573928 -0.246574E+02  0.250E-05    3.85       0.0  T
   2    -24.6573928 -0.706990E-12  0.149E-05    3.85    1728.0  T
   3    -24.6573928  0.390799E-13  0.910E-06    3.85    2837.6  T

   *** convergence criteria satisfied after 3 iterations ***

         #    Occupation            Energy/Eh            Energy/eV
      -------------------------------------------------------------
         1        2.0000           -0.7362230             -20.0336
       ...           ...                  ...                  ...
        16        2.0000           -0.4714394             -12.8285
        17        2.0000           -0.4662374             -12.6870
        18        2.0000           -0.4389492             -11.9444
        19        2.0000           -0.4352003             -11.8424
        20        2.0000           -0.4239069             -11.5351
        21        2.0000           -0.3980279             -10.8309
        22        2.0000           -0.3847820             -10.4705 (HOMO)
        23                         -0.2431434              -6.6163 (LUMO)
        24                         -0.2126969              -5.7878
        25                         -0.1732013              -4.7130
        26                         -0.0816317              -2.2213
        27                          0.0700244               1.9055
       ...                                ...                  ...
        42                          0.7261666              19.7600
      -------------------------------------------------------------
                  HL-Gap            0.1416386 Eh            3.8542 eV
             Fermi-level           -0.3139627 Eh           -8.5434 eV

 SCC (total)                   0 d,  0 h,  0 min,  0.014 sec
 SCC setup                      ...        0 min,  0.001 sec (  4.629%)
 Dispersion                     ...        0 min,  0.000 sec (  0.920%)
 classical contributions        ...        0 min,  0.000 sec (  0.259%)
 integral evaluation            ...        0 min,  0.002 sec ( 13.821%)
 iterations                     ...        0 min,  0.004 sec ( 29.376%)
 molecular gradient             ...        0 min,  0.006 sec ( 47.776%)
 printout                       ...        0 min,  0.000 sec (  2.953%)

         :::::::::::::::::::::::::::::::::::::::::::::::::::::
         ::                     SUMMARY                     ::
         :::::::::::::::::::::::::::::::::::::::::::::::::::::
         :: total energy             -24.254092274062 Eh    ::
         :: total w/o Gsasa/hb       -24.245090683739 Eh    ::
         :: gradient norm              0.000197849913 Eh/a0 ::
         :: HOMO-LUMO gap              3.854181724830 eV    ::
         ::.................................................::
         :: SCC energy               -24.657375679567 Eh    ::
         :: -> isotropic ES            0.010660530637 Eh    ::
         :: -> anisotropic ES          0.002364853088 Eh    ::
         :: -> anisotropic XC          0.010418303256 Eh    ::
         :: -> dispersion             -0.012680005365 Eh    ::
         :: -> Gsolv                  -0.009450776147 Eh    ::
         ::    -> Gelec               -0.000449185824 Eh    ::
         ::    -> Gsasa               -0.013914734689 Eh    ::
         ::    -> Ghb                 -0.000285510386 Eh    ::
         ::    -> Gshift               0.005198654751 Eh    ::
         :: repulsion energy           0.403283405505 Eh    ::
         :: add. restraining           0.000000000000 Eh    ::
         :: total charge              -0.000000000000 e     ::
         :::::::::::::::::::::::::::::::::::::::::::::::::::::

           -------------------------------------------------
          |                Property Printout                |
           -------------------------------------------------

    * Orbital Energies and Occupations

         #    Occupation            Energy/Eh            Energy/eV
      -------------------------------------------------------------
         1        2.0000           -0.7362230             -20.0336
       ...           ...                  ...                  ...
        10        2.0000           -0.5455442             -14.8450
        11        2.0000           -0.5277175             -14.3599
        12        2.0000           -0.5114936             -13.9184
        13        2.0000           -0.4911115             -13.3638
        14        2.0000           -0.4832872             -13.1509
        15        2.0000           -0.4756136             -12.9421
        16        2.0000           -0.4714394             -12.8285
        17        2.0000           -0.4662374             -12.6870
        18        2.0000           -0.4389492             -11.9444
        19        2.0000           -0.4352003             -11.8424
        20        2.0000           -0.4239069             -11.5351
        21        2.0000           -0.3980279             -10.8309
        22        2.0000           -0.3847820             -10.4705 (HOMO)
        23                         -0.2431434              -6.6163 (LUMO)
        24                         -0.2126969              -5.7878
        25                         -0.1732013              -4.7130
        26                         -0.0816317              -2.2213
        27                          0.0700244               1.9055
        28                          0.1074147               2.9229
        29                          0.1182623               3.2181
        30                          0.1412976               3.8449
        31                          0.1645406               4.4774
        32                          0.1859437               5.0598
        33                          0.1991431               5.4190
       ...                                ...                  ...
        42                          0.7261666              19.7600
      -------------------------------------------------------------
                  HL-Gap            0.1416386 Eh            3.8542 eV
             Fermi-level           -0.3139627 Eh           -8.5434 eV

     #   Z          covCN         q      C6AA      α(0)
     1   6 C        2.920    -0.040    29.005     8.832
     2   6 C        2.926    -0.037    28.930     8.821
     3   6 C        2.907    -0.055    29.362     8.885
     4   6 C        3.119     0.120    25.197     8.221
     5   8 O        1.720    -0.212    17.519     5.651
     6   6 C        3.058     0.076    26.243     8.401
     7   6 C        2.981    -0.073    29.812     8.956
     8   6 C        3.094    -0.012    28.204     8.704
     9   6 C        2.912    -0.039    28.978     8.827
    10   1 H        0.926     0.040     2.449     2.447
    11   1 H        0.926     0.042     2.417     2.431
    12   1 H        0.926     0.046     2.371     2.408
    13   1 H        0.926     0.056     2.247     2.344
    14   1 H        0.926     0.047     2.353     2.399
    15   1 H        0.926     0.041     2.438     2.442

 Mol. C6AA /au·bohr⁶  :       3119.363927
 Mol. C8AA /au·bohr⁸  :      77914.445789
 Mol. α(0) /au        :         89.769661


Wiberg/Mayer (AO) data.
largest (>0.10) Wiberg bond orders for each atom

 ---------------------------------------------------------------------------
     #   Z sym  total        # sym  WBO       # sym  WBO       # sym  WBO
 ---------------------------------------------------------------------------
     1   6 C    3.991 --     9 C    1.499     2 C    1.384    10 H    0.971
     2   6 C    3.991 --     3 C    1.481     1 C    1.384    11 H    0.971
     3   6 C    3.989 --     2 C    1.481     4 C    1.356    12 H    0.968
                             9 C    0.116
     4   6 C    3.921 --     3 C    1.356     8 C    1.278     5 O    1.082
     5   8 O    2.397 --     6 C    1.103     4 C    1.082
     6   6 C    3.913 --     7 C    1.671     5 O    1.103    13 H    0.965
     7   6 C    3.982 --     6 C    1.671     8 C    1.197    14 H    0.973
     8   6 C    3.986 --     9 C    1.334     4 C    1.278     7 C    1.197
     9   6 C    3.991 --     1 C    1.499     8 C    1.334    15 H    0.969
                             3 C    0.116
    10   1 H    0.998 --     1 C    0.971
    11   1 H    0.998 --     2 C    0.971
    12   1 H    0.997 --     3 C    0.968
    13   1 H    0.996 --     6 C    0.965
    14   1 H    0.997 --     7 C    0.973
    15   1 H    0.998 --     9 C    0.969
 ---------------------------------------------------------------------------

Topologies differ in total number of bonds
Writing topology from bond orders to xtbtopo.mol

molecular dipole:
                 x           y           z       tot (Debye)
 q only:       -0.060       0.294       0.021
   full:        0.023       0.260       0.013       0.664
molecular quadrupole (traceless):
                xx          xy          yy          xz          yz          zz
 q only:        2.925       2.137      -0.672      -0.254      -0.065      -2.253
  q+dip:        4.492       1.799       1.470      -0.657       0.282      -5.961
   full:        3.295       2.029      -0.196      -0.350       0.016      -3.098

           -------------------------------------------------
          |                Geometry Summary                 |
           -------------------------------------------------

      molecular mass/u    :      118.1329366
   center of mass at/Å    :        0.1967886      -0.1445238      -0.0222076
  moments of inertia/u·Å² :        0.1275997E+03   0.3013259E+03   0.4289255E+03
rotational constants/cm⁻¹ :        0.1321134E+00   0.5594486E-01   0.3930200E-01

 * 16 selected distances

     #   Z          #   Z                                           value/Å
     1   6 C        2   6 C                                       1.3969215
     2   6 C        3   6 C                                       1.3808381
     3   6 C        4   6 C                                       1.3867854
     4   6 C        5   8 O                                       1.3556614
     5   8 O        6   6 C                                       1.3562282
     6   6 C        7   6 C                                       1.3527182
     4   6 C        8   6 C                                       1.4102046
     7   6 C        8   6 C                                       1.4304454 (max)
     1   6 C        9   6 C                                       1.3781306
     8   6 C        9   6 C                                       1.3935733
     1   6 C       10   1 H                                       1.0799908
     2   6 C       11   1 H                                       1.0795318
     3   6 C       12   1 H                                       1.0784972
     6   6 C       13   1 H                                       1.0730650
     7   6 C       14   1 H                                       1.0706686 (min)
     9   6 C       15   1 H                                       1.0793993

 * 3 distinct bonds (by element types)

   Z      Z             #   av. dist./Å        max./Å        min./Å
   1 H    6 C           6     1.0768588     1.0799908     1.0706686
   6 C    6 C           8     1.3912021     1.4304454     1.3527182
   6 C    8 O           2     1.3559448     1.3562282     1.3556614


optimized geometry written to: xtbopt.xyz


           -------------------------------------------------
          | TOTAL ENERGY              -24.254092274062 Eh   |
          | GRADIENT NORM               0.000197849913 Eh/α |
          | HOMO-LUMO GAP               3.854181724830 eV   |
           -------------------------------------------------

------------------------------------------------------------------------
 * finished run on 2026/09/27 at 14:01:47.757     
------------------------------------------------------------------------
 total:
 * wall-time:     0 d,  0 h,  0 min,  0.159 sec
 *  cpu-time:     0 d,  0 h,  0 min,  0.031 sec
 * ratio c/w:     0.196 speedup
 SCF:
 * wall-time:     0 d,  0 h,  0 min,  0.023 sec
 *  cpu-time:     0 d,  0 h,  0 min,  0.000 sec
 * ratio c/w:     0.000 speedup
 ANC optimizer:
 * wall-time:     0 d,  0 h,  0 min,  0.108 sec
 *  cpu-time:     0 d,  0 h,  0 min,  0.031 sec
 * ratio c/w:     0.289 speedup

