12
 energy: -15.885680741749 gnorm: 0.000043187765 xtb: 6.7.1 (edcfbbe)
C            1.36065801125363       -0.25846234768318        0.00928988820092
C            0.90428981164273        1.04893629765560       -0.02208544282268
C           -0.45642107533013        1.30742996766146       -0.03139204701425
C           -1.36065815471320        0.25846219118014       -0.00928910506186
C           -0.90428997097332       -1.04893646215807        0.02208652111018
C            0.45642092327439       -1.30743014600292        0.03139282452624
H            2.42223070148047       -0.46029092684137        0.01669582774983
H            1.61003667374093        1.86708003217690       -0.03954710109120
H           -0.81251225154480        2.32740779769548       -0.05623119505371
H           -2.42223083826565        0.46029077849573       -0.01669573819743
H           -1.61003693312573       -1.86708016779869        0.03954507230139
H            0.81251210256070       -2.32740801438108        0.05623049535256
