      -----------------------------------------------------------      
     |                   =====================                   |     
     |                           x T B                           |     
     |                   =====================                   |     
     |                         S. Grimme                         |     
     |          Mulliken Center for Theoretical Chemistry        |     
     |                    University of Bonn                     |     
      -----------------------------------------------------------      

   * xtb version 6.7.1 (edcfbbe) compiled by 'VssAdministrator@runnervm171ch' on 2026-06-10

   xtb is free software: you can redistribute it and/or modify it under
   the terms of the GNU Lesser General Public License as published by
   the Free Software Foundation, either version 3 of the License, or
   (at your option) any later version.
   
   xtb is distributed in the hope that it will be useful,
   but WITHOUT ANY WARRANTY; without even the implied warranty of
   MERCHANTABILITY or FITNESS FOR A PARTICULAR PURPOSE.  See the
   GNU Lesser General Public License for more details.
   
   Cite this work as:
   * C. Bannwarth, E. Caldeweyher, S. Ehlert, A. Hansen, P. Pracht,
     J. Seibert, S. Spicher, S. Grimme, WIREs Comput. Mol. Sci., 2020, 11,
     e01493. DOI: 10.1002/wcms.1493
   
   for GFN2-xTB:
   * C. Bannwarth, S. Ehlert and S. Grimme., J. Chem. Theory Comput., 2019,
     15, 1652-1671. DOI: 10.1021/acs.jctc.8b01176
   for GFN1-xTB:
   * S. Grimme, C. Bannwarth, P. Shushkov, J. Chem. Theory Comput., 2017,
     13, 1989-2009. DOI: 10.1021/acs.jctc.7b00118
   for GFN0-xTB:
   * P. Pracht, E. Caldeweyher, S. Ehlert, S. Grimme, ChemRxiv, 2019, preprint.
     DOI: 10.26434/chemrxiv.8326202.v1
   for GFN-FF:
   * S. Spicher and S. Grimme, Angew. Chem. Int. Ed., 2020, 59, 15665-15673.
     DOI: 10.1002/anie.202004239
   
   for ALPB and GBSA implicit solvation:
   * S. Ehlert, M. Stahn, S. Spicher, S. Grimme, J. Chem. Theory Comput.,
     2021, 17, 4250-4261. DOI: 10.1021/acs.jctc.1c00471
   
   for ddCOSMO and CPCM-X implicit solvation:
   * M. Stahn, S. Ehlert, S. Grimme, J. Phys. Chem. A,
     2023, XX, XXXX-XXXX. DOI: 10.1021/acs.jpca.3c04382
   
   for DFT-D4:
   * E. Caldeweyher, C. Bannwarth and S. Grimme, J. Chem. Phys., 2017,
     147, 034112. DOI: 10.1063/1.4993215
   * E. Caldeweyher, S. Ehlert, A. Hansen, H. Neugebauer, S. Spicher,
     C. Bannwarth and S. Grimme, J. Chem. Phys., 2019, 150, 154122.
     DOI: 10.1063/1.5090222
   * E. Caldeweyher, J.-M. Mewes, S. Ehlert and S. Grimme, Phys. Chem. Chem. Phys.
     2020, 22, 8499-8512. DOI: 10.1039/D0CP00502A
   
   for sTDA-xTB:
   * S. Grimme and C. Bannwarth, J. Chem. Phys., 2016, 145, 054103.
     DOI: 10.1063/1.4959605
   
   in the mass-spec context:
   * V. Asgeirsson, C. Bauer and S. Grimme, Chem. Sci., 2017, 8, 4879.
     DOI: 10.1039/c7sc00601b
   * J. Koopman and S. Grimme, ACS Omega 2019, 4, 12, 15120-15133.
     DOI: 10.1021/acsomega.9b02011
   
   for metadynamics refer to:
   * S. Grimme, J. Chem. Theory Comput., 2019, 155, 2847-2862
     DOI: 10.1021/acs.jctc.9b00143
   
   for SPH calculations refer to:
   * S. Spicher and S. Grimme, J. Chem. Theory Comput., 2021, 17, 1701-1714
     DOI: 10.1021/acs.jctc.0c01306
   
   for ONIOM refer to:
   * C. Plett, A. Katbashev, S. Ehlert, S. Grimme, M. Bursch,
     Phys. Chem. Chem. Phys., 2023, 25, 17860-17868. DOI: 10.1039/D3CP02178E
   
   for DIPRO refer to:
   * J. Kohn, N. Gildemeister, S. Grimme, D. Fazzi, A. Hansen,
     J. Chem. Phys., 2023, just accepted.
   
   for PTB refer to:
   * S. Grimme, M. Mueller, A. Hansen, J. Chem. Phys., 2023, 158, 124111.
     DOI: 10.1063/5.0137838
   
   with help from (in alphabetical order)
   P. Atkinson, C. Bannwarth, F. Bohle, G. Brandenburg, E. Caldeweyher
   M. Checinski, S. Dohm, S. Ehlert, S. Ehrlich, I. Gerasimov, C. Hölzer
   A. Katbashev, J. Kohn, J. Koopman, C. Lavigne, S. Lehtola, F. März, M. Müller,
   F. Musil, H. Neugebauer, J. Pisarek, C. Plett, P. Pracht, F. Pultar,
   J. Seibert, P. Shushkov, S. Spicher, M. Stahn, M. Steiner, T. Strunk,
   J. Stückrath, T. Rose, and J. Unsleber
   
 * started run on 2026/09/27 at 14:01:44.516     
   ID    Z sym.   atoms
    1    6 C      1-6
    2    1 H      7-12

           -------------------------------------------------
          |                Calculation Setup                |
           -------------------------------------------------

          program call               : xtb input.xyz --gfn 2 --alpb acetonitrile --chrg 1 --uhf 1 --scc --json --parallel 1 --norestart
          coordinate file            : input.xyz
          omp threads                :                     1


           -------------------------------------------------
          |                 G F N 2 - x T B                 |
           -------------------------------------------------

        Reference                      10.1021/acs.jctc.8b01176
      * Hamiltonian:
        H0-scaling (s, p, d)           1.850000    2.230000    2.230000
        zeta-weighting                 0.500000
      * Dispersion:
        s8                             2.700000
        a1                             0.520000
        a2                             5.000000
        s9                             5.000000
      * Repulsion:
        kExp                           1.500000    1.000000
        rExp                           1.000000
      * Coulomb:
        alpha                          2.000000
        third order                    shell-resolved
        anisotropic                    true
        a3                             3.000000
        a5                             4.000000
        cn-shift                       1.200000
        cn-exp                         4.000000
        max-rad                        5.000000

      * Solvation model:               ALPB
        Solvent                        acetonitrile
        Parameter file                 internal GFN2-xTB/ALPB
        Dielectric constant                3.7500E+01
        Reference state                gsolv [1 M gas/solution]
        Free energy shift                  5.1987E-03 Eh       3.2622E+00 kcal/mol
        Temperature                        2.9815E+02 K
        Density                            7.8600E-01 kg/L
        Solvent mass                       4.1050E+01 g/mol
        Interaction kernel             P16
        Born radius scaling (c1)           1.7214E+00
        Born radii integrator          GBOBC
        Born offset                        0.0000E+00 a0       0.0000E+00 AA
        H-bond correction              true
        Ion screening                  false
        Surface tension                    1.0000E-05 Eh       1.5569E+01 dyn/cm
        Grid points                               230 per atom

          ...................................................
          :                      SETUP                      :
          :.................................................:
          :  # basis functions                  30          :
          :  # atomic orbitals                  30          :
          :  # shells                           18          :
          :  # electrons                        29          :
          :  max. iterations                   250          :
          :  Hamiltonian                  GFN2-xTB          :
          :  restarted?                      false          :
          :  GBSA solvation                   true          :
          :  PC potential                    false          :
          :  electronic temp.          300.0000000     K    :
          :  accuracy                    1.0000000          :
          :  -> integral cutoff          0.2500000E+02      :
          :  -> integral neglect         0.1000000E-07      :
          :  -> SCF convergence          0.1000000E-05 Eh   :
          :  -> wf. convergence          0.1000000E-03 e    :
          :  Broyden damping             0.4000000          :
          :  net charge                          1          :
          :  unpaired electrons                  1          :
          ...................................................

 iter      E             dE          RMSdq      gap      omega  full diag
   1    -15.7441047 -0.157441E+02  0.633E+00    5.01       0.0  T
   2    -15.7511591 -0.705438E-02  0.374E+00    5.00       1.0  T
   3    -15.7461453  0.501373E-02  0.154E+00    4.89       1.0  T
   4    -15.7523776 -0.623231E-02  0.342E-01    4.99       1.0  T
   5    -15.7514624  0.915268E-03  0.409E-01    4.97       1.0  T
   6    -15.7523063 -0.843928E-03  0.255E-01    4.99       1.0  T
   7    -15.7523900 -0.836944E-04  0.104E-01    4.99       1.0  T
   8    -15.7523963 -0.635862E-05  0.772E-02    4.99       1.0  T
   9    -15.7524048 -0.850038E-05  0.492E-02    4.99       1.0  T
  10    -15.7524117 -0.689899E-05  0.116E-02    4.99       2.5  T
  11    -15.7524119 -0.175591E-06  0.536E-03    4.99       5.4  T
  12    -15.7524120 -0.423082E-07  0.172E-03    4.99      16.8  T
  13    -15.7524120 -0.409528E-08  0.613E-04    4.99      47.1  T
  14    -15.7524120 -0.665668E-09  0.353E-05    4.99     817.3  T

   *** convergence criteria satisfied after 14 iterations ***

         #    Occupation            Energy/Eh            Energy/eV
      -------------------------------------------------------------
         1        2.0000           -0.7375105             -20.0687
       ...           ...                  ...                  ...
         9        2.0000           -0.5614994             -15.2792
        10        2.0000           -0.5524375             -15.0326
        11        2.0000           -0.5524320             -15.0324
        12        1.8151           -0.4950528             -13.4711
        13        1.8143           -0.4950473             -13.4709
        14        1.6856           -0.4943838             -13.4529
        15        1.6850           -0.4943814             -13.4528 (HOMO)
        16                         -0.3109091              -8.4603 (LUMO)
        17                         -0.3108933              -8.4598
        18                         -0.1786403              -4.8611
        19                          0.0602793               1.6403
        20                          0.0725838               1.9751
       ...                                ...                  ...
        30                          0.5898326              16.0502
      -------------------------------------------------------------
                  HL-Gap            0.1834723 Eh            4.9925 eV
             Fermi-level           -0.4481443 Eh          -12.1946 eV

 SCC (total)                   0 d,  0 h,  0 min,  0.020 sec
 SCC setup                      ...        0 min,  0.001 sec (  4.146%)
 Dispersion                     ...        0 min,  0.000 sec (  0.660%)
 classical contributions        ...        0 min,  0.000 sec (  0.213%)
 integral evaluation            ...        0 min,  0.002 sec (  8.089%)
 iterations                     ...        0 min,  0.015 sec ( 72.864%)
 molecular gradient             ...        0 min,  0.002 sec ( 11.313%)
 printout                       ...        0 min,  0.001 sec (  2.582%)

         :::::::::::::::::::::::::::::::::::::::::::::::::::::
         ::                     SUMMARY                     ::
         :::::::::::::::::::::::::::::::::::::::::::::::::::::
         :: total energy             -15.436313952930 Eh    ::
         :: total w/o Gsasa/hb       -15.427537683036 Eh    ::
         :: gradient norm              0.018932466388 Eh/a0 ::
         :: HOMO-LUMO gap              4.992536467271 eV    ::
         ::.................................................::
         :: SCC energy               -15.752405172680 Eh    ::
         :: -> isotropic ES            0.098677434669 Eh    ::
         :: -> anisotropic ES         -0.020447632803 Eh    ::
         :: -> anisotropic XC          0.015903101592 Eh    ::
         :: -> dispersion             -0.006745459460 Eh    ::
         :: -> Gsolv                  -0.079186664874 Eh    ::
         ::    -> Gelec               -0.070410394980 Eh    ::
         ::    -> Gsasa               -0.011055370251 Eh    ::
         ::    -> Ghb                 -0.002919554395 Eh    ::
         ::    -> Gshift               0.005198654751 Eh    ::
         :: repulsion energy           0.316091219750 Eh    ::
         :: add. restraining           0.000000000000 Eh    ::
         :: total charge               1.000000000000 e     ::
         :::::::::::::::::::::::::::::::::::::::::::::::::::::

           -------------------------------------------------
          |                Property Printout                |
           -------------------------------------------------

    * Orbital Energies and Occupations

         #    Occupation            Energy/Eh            Energy/eV
      -------------------------------------------------------------
         1        2.0000           -0.7375105             -20.0687
       ...           ...                  ...                  ...
         3        2.0000           -0.7008473             -19.0710
         4        2.0000           -0.6545814             -17.8121
         5        2.0000           -0.6545761             -17.8119
         6        2.0000           -0.6065791             -16.5059
         7        2.0000           -0.5835903             -15.8803
         8        2.0000           -0.5682668             -15.4633
         9        2.0000           -0.5614994             -15.2792
        10        2.0000           -0.5524375             -15.0326
        11        2.0000           -0.5524320             -15.0324
        12        1.8151           -0.4950528             -13.4711
        13        1.8143           -0.4950473             -13.4709
        14        1.6856           -0.4943838             -13.4529
        15        1.6850           -0.4943814             -13.4528 (HOMO)
        16                         -0.3109091              -8.4603 (LUMO)
        17                         -0.3108933              -8.4598
        18                         -0.1786403              -4.8611
        19                          0.0602793               1.6403
        20                          0.0725838               1.9751
        21                          0.1106217               3.0102
        22                          0.1106536               3.0110
        23                          0.1295193               3.5244
        24                          0.1295656               3.5257
        25                          0.3342511               9.0954
        26                          0.3343594               9.0984
       ...                                ...                  ...
        30                          0.5898326              16.0502
      -------------------------------------------------------------
                  HL-Gap            0.1834723 Eh            4.9925 eV
             Fermi-level           -0.4481443 Eh          -12.1946 eV

     #   Z          covCN         q      C6AA      α(0)
     1   6 C        2.920     0.019    27.585     8.613
     2   6 C        2.920     0.019    27.585     8.613
     3   6 C        2.920     0.019    27.585     8.613
     4   6 C        2.920     0.019    27.585     8.613
     5   6 C        2.920     0.019    27.585     8.613
     6   6 C        2.920     0.019    27.585     8.613
     7   1 H        0.926     0.148     1.407     1.855
     8   1 H        0.926     0.148     1.407     1.855
     9   1 H        0.926     0.148     1.408     1.855
    10   1 H        0.926     0.148     1.407     1.855
    11   1 H        0.926     0.148     1.407     1.855
    12   1 H        0.926     0.148     1.408     1.855

 Mol. C6AA /au·bohr⁶  :       1491.747417
 Mol. C8AA /au·bohr⁸  :      37710.749730
 Mol. α(0) /au        :         62.807951


Wiberg/Mayer (AO) data.
largest (>0.10) Wiberg bond orders for each atom

 ---------------------------------------------------------------------------
     #   Z sym  total        # sym  WBO       # sym  WBO       # sym  WBO
 ---------------------------------------------------------------------------
     1   6 C    3.751 --     6 C    1.365     2 C    1.365     7 H    0.918
     2   6 C    3.751 --     3 C    1.365     1 C    1.365     8 H    0.918
     3   6 C    3.751 --     2 C    1.365     4 C    1.365     9 H    0.919
     4   6 C    3.751 --     3 C    1.365     5 C    1.365    10 H    0.918
     5   6 C    3.751 --     6 C    1.365     4 C    1.365    11 H    0.918
     6   6 C    3.751 --     5 C    1.365     1 C    1.365    12 H    0.919
     7   1 H    0.941 --     1 C    0.918
     8   1 H    0.941 --     2 C    0.918
     9   1 H    0.942 --     3 C    0.919
    10   1 H    0.941 --     4 C    0.918
    11   1 H    0.941 --     5 C    0.918
    12   1 H    0.942 --     6 C    0.919
 ---------------------------------------------------------------------------

Topologies differ in total number of bonds
Writing topology from bond orders to xtbtopo.mol

molecular dipole:
                 x           y           z       tot (Debye)
 q only:        0.000      -0.000      -0.000
   full:        0.000      -0.000      -0.000       0.000
molecular quadrupole (traceless):
                xx          xy          yy          xz          yz          zz
 q only:        5.007       0.001       4.995       0.037      -0.350     -10.001
  q+dip:        6.793       0.001       6.776       0.050      -0.473     -13.569
   full:        5.052       0.001       5.037       0.037      -0.352     -10.089


           -------------------------------------------------
          | TOTAL ENERGY              -15.436313952930 Eh   |
          | GRADIENT NORM               0.018932466388 Eh/α |
          | HOMO-LUMO GAP               4.992536467271 eV   |
           -------------------------------------------------

------------------------------------------------------------------------
 * finished run on 2026/09/27 at 14:01:44.562     
------------------------------------------------------------------------
 total:
 * wall-time:     0 d,  0 h,  0 min,  0.045 sec
 *  cpu-time:     0 d,  0 h,  0 min,  0.000 sec
 * ratio c/w:     0.000 speedup
 SCF:
 * wall-time:     0 d,  0 h,  0 min,  0.021 sec
 *  cpu-time:     0 d,  0 h,  0 min,  0.000 sec
 * ratio c/w:     0.000 speedup

