16
 energy: -24.222950045856 gnorm: 0.000226422441 xtb: 6.7.1 (edcfbbe)
O           -2.21330038920335        1.34004777646662       -0.72522683848879
C           -1.99904042668050       -0.04656761532927       -0.80717488374709
C           -1.27219597337785       -0.62542058604224        0.42362474359615
C            0.16273766169006       -0.22318725902846        0.45655536485054
S            0.65521186168186        1.28445354577864        1.17030485442119
C            2.29786466824089        0.99609061733598        0.74388897309998
C            2.45309007266550       -0.18473385545443        0.09657186675936
C            1.23206921237032       -0.87878034764410       -0.07081990842725
H           -1.36401911549582        1.77849172186921       -0.58232520044187
H           -2.99399960009530       -0.49110240568771       -0.88404485753781
H           -1.43080912585942       -0.29716815249309       -1.71524247713830
H           -1.33952599796972       -1.71352749787677        0.37959111309114
H           -1.78490302966231       -0.27445019088898        1.32111016287124
H            3.04155291313991        1.72261308380978        1.00430060359626
H            3.40171919668449       -0.55287864707549       -0.25172052726139
H            1.15354707187130       -1.83388218773971       -0.55939298924335
