      -----------------------------------------------------------      
     |                   =====================                   |     
     |                           x T B                           |     
     |                   =====================                   |     
     |                         S. Grimme                         |     
     |          Mulliken Center for Theoretical Chemistry        |     
     |                    University of Bonn                     |     
      -----------------------------------------------------------      

   * xtb version 6.7.1 (edcfbbe) compiled by 'VssAdministrator@runnervm171ch' on 2026-06-10

   xtb is free software: you can redistribute it and/or modify it under
   the terms of the GNU Lesser General Public License as published by
   the Free Software Foundation, either version 3 of the License, or
   (at your option) any later version.
   
   xtb is distributed in the hope that it will be useful,
   but WITHOUT ANY WARRANTY; without even the implied warranty of
   MERCHANTABILITY or FITNESS FOR A PARTICULAR PURPOSE.  See the
   GNU Lesser General Public License for more details.
   
   Cite this work as:
   * C. Bannwarth, E. Caldeweyher, S. Ehlert, A. Hansen, P. Pracht,
     J. Seibert, S. Spicher, S. Grimme, WIREs Comput. Mol. Sci., 2020, 11,
     e01493. DOI: 10.1002/wcms.1493
   
   for GFN2-xTB:
   * C. Bannwarth, S. Ehlert and S. Grimme., J. Chem. Theory Comput., 2019,
     15, 1652-1671. DOI: 10.1021/acs.jctc.8b01176
   for GFN1-xTB:
   * S. Grimme, C. Bannwarth, P. Shushkov, J. Chem. Theory Comput., 2017,
     13, 1989-2009. DOI: 10.1021/acs.jctc.7b00118
   for GFN0-xTB:
   * P. Pracht, E. Caldeweyher, S. Ehlert, S. Grimme, ChemRxiv, 2019, preprint.
     DOI: 10.26434/chemrxiv.8326202.v1
   for GFN-FF:
   * S. Spicher and S. Grimme, Angew. Chem. Int. Ed., 2020, 59, 15665-15673.
     DOI: 10.1002/anie.202004239
   
   for ALPB and GBSA implicit solvation:
   * S. Ehlert, M. Stahn, S. Spicher, S. Grimme, J. Chem. Theory Comput.,
     2021, 17, 4250-4261. DOI: 10.1021/acs.jctc.1c00471
   
   for ddCOSMO and CPCM-X implicit solvation:
   * M. Stahn, S. Ehlert, S. Grimme, J. Phys. Chem. A,
     2023, XX, XXXX-XXXX. DOI: 10.1021/acs.jpca.3c04382
   
   for DFT-D4:
   * E. Caldeweyher, C. Bannwarth and S. Grimme, J. Chem. Phys., 2017,
     147, 034112. DOI: 10.1063/1.4993215
   * E. Caldeweyher, S. Ehlert, A. Hansen, H. Neugebauer, S. Spicher,
     C. Bannwarth and S. Grimme, J. Chem. Phys., 2019, 150, 154122.
     DOI: 10.1063/1.5090222
   * E. Caldeweyher, J.-M. Mewes, S. Ehlert and S. Grimme, Phys. Chem. Chem. Phys.
     2020, 22, 8499-8512. DOI: 10.1039/D0CP00502A
   
   for sTDA-xTB:
   * S. Grimme and C. Bannwarth, J. Chem. Phys., 2016, 145, 054103.
     DOI: 10.1063/1.4959605
   
   in the mass-spec context:
   * V. Asgeirsson, C. Bauer and S. Grimme, Chem. Sci., 2017, 8, 4879.
     DOI: 10.1039/c7sc00601b
   * J. Koopman and S. Grimme, ACS Omega 2019, 4, 12, 15120-15133.
     DOI: 10.1021/acsomega.9b02011
   
   for metadynamics refer to:
   * S. Grimme, J. Chem. Theory Comput., 2019, 155, 2847-2862
     DOI: 10.1021/acs.jctc.9b00143
   
   for SPH calculations refer to:
   * S. Spicher and S. Grimme, J. Chem. Theory Comput., 2021, 17, 1701-1714
     DOI: 10.1021/acs.jctc.0c01306
   
   for ONIOM refer to:
   * C. Plett, A. Katbashev, S. Ehlert, S. Grimme, M. Bursch,
     Phys. Chem. Chem. Phys., 2023, 25, 17860-17868. DOI: 10.1039/D3CP02178E
   
   for DIPRO refer to:
   * J. Kohn, N. Gildemeister, S. Grimme, D. Fazzi, A. Hansen,
     J. Chem. Phys., 2023, just accepted.
   
   for PTB refer to:
   * S. Grimme, M. Mueller, A. Hansen, J. Chem. Phys., 2023, 158, 124111.
     DOI: 10.1063/5.0137838
   
   with help from (in alphabetical order)
   P. Atkinson, C. Bannwarth, F. Bohle, G. Brandenburg, E. Caldeweyher
   M. Checinski, S. Dohm, S. Ehlert, S. Ehrlich, I. Gerasimov, C. Hölzer
   A. Katbashev, J. Kohn, J. Koopman, C. Lavigne, S. Lehtola, F. März, M. Müller,
   F. Musil, H. Neugebauer, J. Pisarek, C. Plett, P. Pracht, F. Pultar,
   J. Seibert, P. Shushkov, S. Spicher, M. Stahn, M. Steiner, T. Strunk,
   J. Stückrath, T. Rose, and J. Unsleber
   
 * started run on 2026/09/27 at 14:01:47.797     
   ID    Z sym.   atoms
    1    6 C      1-4, 6-9
    2    8 O      5
    3    1 H      10-15

           -------------------------------------------------
          |                Calculation Setup                |
           -------------------------------------------------

          program call               : xtb input.xyz --gfn 2 --alpb acetonitrile --chrg 1 --uhf 1 --scc --json --parallel 1 --norestart
          coordinate file            : input.xyz
          omp threads                :                     1


           -------------------------------------------------
          |                 G F N 2 - x T B                 |
           -------------------------------------------------

        Reference                      10.1021/acs.jctc.8b01176
      * Hamiltonian:
        H0-scaling (s, p, d)           1.850000    2.230000    2.230000
        zeta-weighting                 0.500000
      * Dispersion:
        s8                             2.700000
        a1                             0.520000
        a2                             5.000000
        s9                             5.000000
      * Repulsion:
        kExp                           1.500000    1.000000
        rExp                           1.000000
      * Coulomb:
        alpha                          2.000000
        third order                    shell-resolved
        anisotropic                    true
        a3                             3.000000
        a5                             4.000000
        cn-shift                       1.200000
        cn-exp                         4.000000
        max-rad                        5.000000

      * Solvation model:               ALPB
        Solvent                        acetonitrile
        Parameter file                 internal GFN2-xTB/ALPB
        Dielectric constant                3.7500E+01
        Reference state                gsolv [1 M gas/solution]
        Free energy shift                  5.1987E-03 Eh       3.2622E+00 kcal/mol
        Temperature                        2.9815E+02 K
        Density                            7.8600E-01 kg/L
        Solvent mass                       4.1050E+01 g/mol
        Interaction kernel             P16
        Born radius scaling (c1)           1.7214E+00
        Born radii integrator          GBOBC
        Born offset                        0.0000E+00 a0       0.0000E+00 AA
        H-bond correction              true
        Ion screening                  false
        Surface tension                    1.0000E-05 Eh       1.5569E+01 dyn/cm
        Grid points                               230 per atom

          ...................................................
          :                      SETUP                      :
          :.................................................:
          :  # basis functions                  42          :
          :  # atomic orbitals                  42          :
          :  # shells                           24          :
          :  # electrons                        43          :
          :  max. iterations                   250          :
          :  Hamiltonian                  GFN2-xTB          :
          :  restarted?                      false          :
          :  GBSA solvation                   true          :
          :  PC potential                    false          :
          :  electronic temp.          300.0000000     K    :
          :  accuracy                    1.0000000          :
          :  -> integral cutoff          0.2500000E+02      :
          :  -> integral neglect         0.1000000E-07      :
          :  -> SCF convergence          0.1000000E-05 Eh   :
          :  -> wf. convergence          0.1000000E-03 e    :
          :  Broyden damping             0.4000000          :
          :  net charge                          1          :
          :  unpaired electrons                  1          :
          ...................................................

 iter      E             dE          RMSdq      gap      omega  full diag
   1    -24.2153429 -0.242153E+02  0.567E+00    3.91       0.0  T
   2    -24.2123217  0.302115E-02  0.362E+00    3.87       1.0  T
   3    -24.1388188  0.735029E-01  0.273E+00    3.46       1.0  T
   4    -24.2266539 -0.878350E-01  0.699E-01    3.91       1.0  T
   5    -24.2292020 -0.254809E-02  0.426E-01    3.89       1.0  T
   6    -24.2304294 -0.122742E-02  0.221E-01    3.90       1.0  T
   7    -24.2304556 -0.261959E-04  0.949E-02    3.90       1.0  T
   8    -24.2305841 -0.128535E-03  0.432E-02    3.90       1.0  T
   9    -24.2305927 -0.858582E-05  0.215E-02    3.90       1.2  T
  10    -24.2305962 -0.355596E-05  0.784E-03    3.90       3.3  T
  11    -24.2305966 -0.377197E-06  0.313E-03    3.90       8.2  T
  12    -24.2305967 -0.683602E-07  0.776E-04    3.90      33.3  T
  13    -24.2305967  0.450418E-08  0.100E-03    3.90      25.7  T
  14    -24.2305967 -0.598393E-08  0.465E-04    3.90      55.5  T

   *** convergence criteria satisfied after 14 iterations ***

         #    Occupation            Energy/Eh            Energy/eV
      -------------------------------------------------------------
         1        2.0000           -0.8162226             -22.2105
       ...           ...                  ...                  ...
        16        2.0000           -0.5470035             -14.8847
        17        2.0000           -0.5382147             -14.6456
        18        2.0000           -0.5204466             -14.1621
        19        2.0000           -0.5043428             -13.7239
        20        2.0000           -0.4917828             -13.3821
        21        1.9870           -0.4772301             -12.9861
        22        1.0130           -0.4690091             -12.7624 (HOMO)
        23                         -0.3257475              -8.8640 (LUMO)
        24                         -0.2896424              -7.8816
        25                         -0.2562827              -6.9738
        26                         -0.1612857              -4.3888
        27                         -0.0029529              -0.0804
       ...                                ...                  ...
        42                          0.6453560              17.5610
      -------------------------------------------------------------
                  HL-Gap            0.1432616 Eh            3.8983 eV
             Fermi-level           -0.4352489 Eh          -11.8437 eV

 SCC (total)                   0 d,  0 h,  0 min,  0.030 sec
 SCC setup                      ...        0 min,  0.001 sec (  3.036%)
 Dispersion                     ...        0 min,  0.000 sec (  0.511%)
 classical contributions        ...        0 min,  0.000 sec (  0.133%)
 integral evaluation            ...        0 min,  0.002 sec (  5.882%)
 iterations                     ...        0 min,  0.018 sec ( 60.449%)
 molecular gradient             ...        0 min,  0.008 sec ( 27.085%)
 printout                       ...        0 min,  0.001 sec (  2.781%)

         :::::::::::::::::::::::::::::::::::::::::::::::::::::
         ::                     SUMMARY                     ::
         :::::::::::::::::::::::::::::::::::::::::::::::::::::
         :: total energy             -23.827296184072 Eh    ::
         :: total w/o Gsasa/hb       -23.816145150988 Eh    ::
         :: gradient norm              0.090286743741 Eh/a0 ::
         :: HOMO-LUMO gap              3.898346370359 eV    ::
         ::.................................................::
         :: SCC energy               -24.230579589577 Eh    ::
         :: -> isotropic ES            0.097461809159 Eh    ::
         :: -> anisotropic ES         -0.015020926857 Eh    ::
         :: -> anisotropic XC          0.014571082940 Eh    ::
         :: -> dispersion             -0.011407000794 Eh    ::
         :: -> Gsolv                  -0.075780697007 Eh    ::
         ::    -> Gelec               -0.064629663922 Eh    ::
         ::    -> Gsasa               -0.013914734689 Eh    ::
         ::    -> Ghb                 -0.002434953147 Eh    ::
         ::    -> Gshift               0.005198654751 Eh    ::
         :: repulsion energy           0.403283405505 Eh    ::
         :: add. restraining           0.000000000000 Eh    ::
         :: total charge               1.000000000000 e     ::
         :::::::::::::::::::::::::::::::::::::::::::::::::::::

           -------------------------------------------------
          |                Property Printout                |
           -------------------------------------------------

    * Orbital Energies and Occupations

         #    Occupation            Energy/Eh            Energy/eV
      -------------------------------------------------------------
         1        2.0000           -0.8162226             -22.2105
       ...           ...                  ...                  ...
        10        2.0000           -0.6184859             -16.8299
        11        2.0000           -0.6006415             -16.3443
        12        2.0000           -0.5791899             -15.7606
        13        2.0000           -0.5639270             -15.3452
        14        2.0000           -0.5557791             -15.1235
        15        2.0000           -0.5533527             -15.0575
        16        2.0000           -0.5470035             -14.8847
        17        2.0000           -0.5382147             -14.6456
        18        2.0000           -0.5204466             -14.1621
        19        2.0000           -0.5043428             -13.7239
        20        2.0000           -0.4917828             -13.3821
        21        1.9870           -0.4772301             -12.9861
        22        1.0130           -0.4690091             -12.7624 (HOMO)
        23                         -0.3257475              -8.8640 (LUMO)
        24                         -0.2896424              -7.8816
        25                         -0.2562827              -6.9738
        26                         -0.1612857              -4.3888
        27                         -0.0029529              -0.0804
        28                          0.0395667               1.0767
        29                          0.0527579               1.4356
        30                          0.0840080               2.2860
        31                          0.1020007               2.7756
        32                          0.1199082               3.2629
        33                          0.1368734               3.7245
       ...                                ...                  ...
        42                          0.6453560              17.5610
      -------------------------------------------------------------
                  HL-Gap            0.1432616 Eh            3.8983 eV
             Fermi-level           -0.4352489 Eh          -11.8437 eV

     #   Z          covCN         q      C6AA      α(0)
     1   6 C        2.920    -0.015    28.393     8.738
     2   6 C        2.926     0.014    27.692     8.630
     3   6 C        2.907     0.004    27.934     8.666
     4   6 C        3.119     0.141    24.783     8.154
     5   8 O        1.720    -0.112    16.003     5.401
     6   6 C        3.058     0.132    25.055     8.209
     7   6 C        2.981    -0.008    28.224     8.715
     8   6 C        3.094     0.021    27.429     8.584
     9   6 C        2.912     0.024    27.473     8.595
    10   1 H        0.926     0.118     1.632     1.998
    11   1 H        0.926     0.126     1.562     1.955
    12   1 H        0.926     0.131     1.525     1.931
    13   1 H        0.926     0.153     1.371     1.831
    14   1 H        0.926     0.142     1.448     1.882
    15   1 H        0.926     0.129     1.539     1.940

 Mol. C6AA /au·bohr⁶  :       2805.440702
 Mol. C8AA /au·bohr⁸  :      71471.916851
 Mol. α(0) /au        :         85.227785


Wiberg/Mayer (AO) data.
largest (>0.10) Wiberg bond orders for each atom

 ---------------------------------------------------------------------------
     #   Z sym  total        # sym  WBO       # sym  WBO       # sym  WBO
 ---------------------------------------------------------------------------
     1   6 C    3.970 --     9 C    1.437     2 C    1.431    10 H    0.958
     2   6 C    3.933 --     1 C    1.431     3 C    1.324    11 H    0.956
     3   6 C    3.936 --     4 C    1.406     2 C    1.324    12 H    0.952
     4   6 C    3.920 --     3 C    1.406     8 C    1.250     5 O    1.066
     5   8 O    2.513 --     6 C    1.238     4 C    1.066
     6   6 C    3.864 --     7 C    1.442     5 O    1.238    13 H    0.945
     7   6 C    3.927 --     6 C    1.442     8 C    1.294    14 H    0.954
     8   6 C    3.984 --     7 C    1.294     4 C    1.250     9 C    1.245
     9   6 C    3.904 --     1 C    1.437     8 C    1.245    15 H    0.953
    10   1 H    0.986 --     1 C    0.958
    11   1 H    0.984 --     2 C    0.956
    12   1 H    0.982 --     3 C    0.952
    13   1 H    0.976 --     6 C    0.945
    14   1 H    0.979 --     7 C    0.954
    15   1 H    0.983 --     9 C    0.953
 ---------------------------------------------------------------------------

Topologies differ in total number of bonds
Writing topology from bond orders to xtbtopo.mol

molecular dipole:
                 x           y           z       tot (Debye)
 q only:        0.255       0.307      -0.001
   full:        0.369       0.251      -0.012       1.134
molecular quadrupole (traceless):
                xx          xy          yy          xz          yz          zz
 q only:       14.359       3.854      -0.429      -1.823       0.473     -13.929
  q+dip:       15.282       4.074       1.585      -2.092       0.730     -16.866
   full:       13.559       3.969      -0.683      -1.685       0.392     -12.875


           -------------------------------------------------
          | TOTAL ENERGY              -23.827296184072 Eh   |
          | GRADIENT NORM               0.090286743741 Eh/α |
          | HOMO-LUMO GAP               3.898346370359 eV   |
           -------------------------------------------------

------------------------------------------------------------------------
 * finished run on 2026/09/27 at 14:01:47.858     
------------------------------------------------------------------------
 total:
 * wall-time:     0 d,  0 h,  0 min,  0.060 sec
 *  cpu-time:     0 d,  0 h,  0 min,  0.016 sec
 * ratio c/w:     0.261 speedup
 SCF:
 * wall-time:     0 d,  0 h,  0 min,  0.031 sec
 *  cpu-time:     0 d,  0 h,  0 min,  0.016 sec
 * ratio c/w:     0.509 speedup

