      -----------------------------------------------------------      
     |                   =====================                   |     
     |                           x T B                           |     
     |                   =====================                   |     
     |                         S. Grimme                         |     
     |          Mulliken Center for Theoretical Chemistry        |     
     |                    University of Bonn                     |     
      -----------------------------------------------------------      

   * xtb version 6.7.1 (edcfbbe) compiled by 'VssAdministrator@runnervm171ch' on 2026-06-10

   xtb is free software: you can redistribute it and/or modify it under
   the terms of the GNU Lesser General Public License as published by
   the Free Software Foundation, either version 3 of the License, or
   (at your option) any later version.
   
   xtb is distributed in the hope that it will be useful,
   but WITHOUT ANY WARRANTY; without even the implied warranty of
   MERCHANTABILITY or FITNESS FOR A PARTICULAR PURPOSE.  See the
   GNU Lesser General Public License for more details.
   
   Cite this work as:
   * C. Bannwarth, E. Caldeweyher, S. Ehlert, A. Hansen, P. Pracht,
     J. Seibert, S. Spicher, S. Grimme, WIREs Comput. Mol. Sci., 2020, 11,
     e01493. DOI: 10.1002/wcms.1493
   
   for GFN2-xTB:
   * C. Bannwarth, S. Ehlert and S. Grimme., J. Chem. Theory Comput., 2019,
     15, 1652-1671. DOI: 10.1021/acs.jctc.8b01176
   for GFN1-xTB:
   * S. Grimme, C. Bannwarth, P. Shushkov, J. Chem. Theory Comput., 2017,
     13, 1989-2009. DOI: 10.1021/acs.jctc.7b00118
   for GFN0-xTB:
   * P. Pracht, E. Caldeweyher, S. Ehlert, S. Grimme, ChemRxiv, 2019, preprint.
     DOI: 10.26434/chemrxiv.8326202.v1
   for GFN-FF:
   * S. Spicher and S. Grimme, Angew. Chem. Int. Ed., 2020, 59, 15665-15673.
     DOI: 10.1002/anie.202004239
   
   for ALPB and GBSA implicit solvation:
   * S. Ehlert, M. Stahn, S. Spicher, S. Grimme, J. Chem. Theory Comput.,
     2021, 17, 4250-4261. DOI: 10.1021/acs.jctc.1c00471
   
   for ddCOSMO and CPCM-X implicit solvation:
   * M. Stahn, S. Ehlert, S. Grimme, J. Phys. Chem. A,
     2023, XX, XXXX-XXXX. DOI: 10.1021/acs.jpca.3c04382
   
   for DFT-D4:
   * E. Caldeweyher, C. Bannwarth and S. Grimme, J. Chem. Phys., 2017,
     147, 034112. DOI: 10.1063/1.4993215
   * E. Caldeweyher, S. Ehlert, A. Hansen, H. Neugebauer, S. Spicher,
     C. Bannwarth and S. Grimme, J. Chem. Phys., 2019, 150, 154122.
     DOI: 10.1063/1.5090222
   * E. Caldeweyher, J.-M. Mewes, S. Ehlert and S. Grimme, Phys. Chem. Chem. Phys.
     2020, 22, 8499-8512. DOI: 10.1039/D0CP00502A
   
   for sTDA-xTB:
   * S. Grimme and C. Bannwarth, J. Chem. Phys., 2016, 145, 054103.
     DOI: 10.1063/1.4959605
   
   in the mass-spec context:
   * V. Asgeirsson, C. Bauer and S. Grimme, Chem. Sci., 2017, 8, 4879.
     DOI: 10.1039/c7sc00601b
   * J. Koopman and S. Grimme, ACS Omega 2019, 4, 12, 15120-15133.
     DOI: 10.1021/acsomega.9b02011
   
   for metadynamics refer to:
   * S. Grimme, J. Chem. Theory Comput., 2019, 155, 2847-2862
     DOI: 10.1021/acs.jctc.9b00143
   
   for SPH calculations refer to:
   * S. Spicher and S. Grimme, J. Chem. Theory Comput., 2021, 17, 1701-1714
     DOI: 10.1021/acs.jctc.0c01306
   
   for ONIOM refer to:
   * C. Plett, A. Katbashev, S. Ehlert, S. Grimme, M. Bursch,
     Phys. Chem. Chem. Phys., 2023, 25, 17860-17868. DOI: 10.1039/D3CP02178E
   
   for DIPRO refer to:
   * J. Kohn, N. Gildemeister, S. Grimme, D. Fazzi, A. Hansen,
     J. Chem. Phys., 2023, just accepted.
   
   for PTB refer to:
   * S. Grimme, M. Mueller, A. Hansen, J. Chem. Phys., 2023, 158, 124111.
     DOI: 10.1063/5.0137838
   
   with help from (in alphabetical order)
   P. Atkinson, C. Bannwarth, F. Bohle, G. Brandenburg, E. Caldeweyher
   M. Checinski, S. Dohm, S. Ehlert, S. Ehrlich, I. Gerasimov, C. Hölzer
   A. Katbashev, J. Kohn, J. Koopman, C. Lavigne, S. Lehtola, F. März, M. Müller,
   F. Musil, H. Neugebauer, J. Pisarek, C. Plett, P. Pracht, F. Pultar,
   J. Seibert, P. Shushkov, S. Spicher, M. Stahn, M. Steiner, T. Strunk,
   J. Stückrath, T. Rose, and J. Unsleber
   
 * started run on 2026/09/27 at 14:01:44.850     
   ID    Z sym.   atoms
    1    6 C      1-6
    2    1 H      7-12

           -------------------------------------------------
          |                Calculation Setup                |
           -------------------------------------------------

          program call               : xtb input.xyz --gfn 2 --chrg -1 --uhf 1 --scc --json --parallel 1 --norestart
          coordinate file            : input.xyz
          omp threads                :                     1


           -------------------------------------------------
          |                 G F N 2 - x T B                 |
           -------------------------------------------------

        Reference                      10.1021/acs.jctc.8b01176
      * Hamiltonian:
        H0-scaling (s, p, d)           1.850000    2.230000    2.230000
        zeta-weighting                 0.500000
      * Dispersion:
        s8                             2.700000
        a1                             0.520000
        a2                             5.000000
        s9                             5.000000
      * Repulsion:
        kExp                           1.500000    1.000000
        rExp                           1.000000
      * Coulomb:
        alpha                          2.000000
        third order                    shell-resolved
        anisotropic                    true
        a3                             3.000000
        a5                             4.000000
        cn-shift                       1.200000
        cn-exp                         4.000000
        max-rad                        5.000000


          ...................................................
          :                      SETUP                      :
          :.................................................:
          :  # basis functions                  30          :
          :  # atomic orbitals                  30          :
          :  # shells                           18          :
          :  # electrons                        31          :
          :  max. iterations                   250          :
          :  Hamiltonian                  GFN2-xTB          :
          :  restarted?                      false          :
          :  GBSA solvation                  false          :
          :  PC potential                    false          :
          :  electronic temp.          300.0000000     K    :
          :  accuracy                    1.0000000          :
          :  -> integral cutoff          0.2500000E+02      :
          :  -> integral neglect         0.1000000E-07      :
          :  -> SCF convergence          0.1000000E-05 Eh   :
          :  -> wf. convergence          0.1000000E-03 e    :
          :  Broyden damping             0.4000000          :
          :  net charge                         -1          :
          :  unpaired electrons                  1          :
          ...................................................

 iter      E             dE          RMSdq      gap      omega  full diag
   1    -16.2789336 -0.162789E+02  0.332E+00    0.00       0.0  T
   2    -16.2987447 -0.198110E-01  0.183E+00    0.00       1.0  T
   3    -16.2994730 -0.728350E-03  0.673E-01    0.01       1.0  T
   4    -16.2936205  0.585248E-02  0.107E+00    0.07       1.0  T
   5    -16.2996677 -0.604719E-02  0.415E-02    0.00       1.0  T
   6    -16.2996570  0.107566E-04  0.463E-02    0.00       1.0  T
   7    -16.2996628 -0.578392E-05  0.324E-02    0.00       1.0  T
   8    -16.2996681 -0.532159E-05  0.704E-04    0.00      41.0  T
   9    -16.2996681  0.335021E-11  0.207E-04    0.00     139.7  T
  10    -16.2996681 -0.881855E-10  0.682E-05    0.00     423.2  T

   *** convergence criteria satisfied after 10 iterations ***

         #    Occupation            Energy/Eh            Energy/eV
      -------------------------------------------------------------
         1        2.0000           -0.4011861             -10.9168
       ...           ...                  ...                  ...
        10        2.0000           -0.2491105              -6.7786
        11        2.0000           -0.2339410              -6.3659
        12        2.0000           -0.2009455              -5.4680
        13        2.0000           -0.2009355              -5.4677
        14        2.0000           -0.1633889              -4.4460
        15        2.0000           -0.1633719              -4.4456
        16        0.5002            0.0156162               0.4249 (HOMO)
        17        0.4998            0.0156175               0.4250 (LUMO)
        18                          0.1456425               3.9631
        19                          0.3228945               8.7864
        20                          0.3484871               9.4828
        21                          0.3830017              10.4220
       ...                                ...                  ...
        30                          0.9035706              24.5874
      -------------------------------------------------------------
                  HL-Gap            0.0000013 Eh            0.0000 eV
             Fermi-level           -0.0291305 Eh           -0.7927 eV

 SCC (total)                   0 d,  0 h,  0 min,  0.018 sec
 SCC setup                      ...        0 min,  0.000 sec (  1.755%)
 Dispersion                     ...        0 min,  0.000 sec (  0.610%)
 classical contributions        ...        0 min,  0.000 sec (  0.217%)
 integral evaluation            ...        0 min,  0.001 sec (  5.495%)
 iterations                     ...        0 min,  0.014 sec ( 76.711%)
 molecular gradient             ...        0 min,  0.002 sec ( 12.599%)
 printout                       ...        0 min,  0.000 sec (  2.511%)

         :::::::::::::::::::::::::::::::::::::::::::::::::::::
         ::                     SUMMARY                     ::
         :::::::::::::::::::::::::::::::::::::::::::::::::::::
         :: total energy             -15.983570061942 Eh    ::
         :: gradient norm              0.039119737836 Eh/a0 ::
         :: HOMO-LUMO gap              0.000035745020 eV    ::
         ::.................................................::
         :: SCC energy               -16.299661281692 Eh    ::
         :: -> isotropic ES            0.113426233476 Eh    ::
         :: -> anisotropic ES          0.020567029035 Eh    ::
         :: -> anisotropic XC          0.007754544293 Eh    ::
         :: -> dispersion             -0.009864621752 Eh    ::
         :: repulsion energy           0.316091219750 Eh    ::
         :: add. restraining           0.000000000000 Eh    ::
         :: total charge              -1.000000000000 e     ::
         :::::::::::::::::::::::::::::::::::::::::::::::::::::

           -------------------------------------------------
          |                Property Printout                |
           -------------------------------------------------

    * Orbital Energies and Occupations

         #    Occupation            Energy/Eh            Energy/eV
      -------------------------------------------------------------
         1        2.0000           -0.4011861             -10.9168
       ...           ...                  ...                  ...
         4        2.0000           -0.3412076              -9.2847
         5        2.0000           -0.3412013              -9.2846
         6        2.0000           -0.3110960              -8.4654
         7        2.0000           -0.2854006              -7.7661
         8        2.0000           -0.2548133              -6.9338
         9        2.0000           -0.2547908              -6.9332
        10        2.0000           -0.2491105              -6.7786
        11        2.0000           -0.2339410              -6.3659
        12        2.0000           -0.2009455              -5.4680
        13        2.0000           -0.2009355              -5.4677
        14        2.0000           -0.1633889              -4.4460
        15        2.0000           -0.1633719              -4.4456
        16        0.5002            0.0156162               0.4249 (HOMO)
        17        0.4998            0.0156175               0.4250 (LUMO)
        18                          0.1456425               3.9631
        19                          0.3228945               8.7864
        20                          0.3484871               9.4828
        21                          0.3830017              10.4220
        22                          0.3830394              10.4230
        23                          0.4199159              11.4265
        24                          0.4199624              11.4278
        25                          0.6398427              17.4110
        26                          0.6399646              17.4143
        27                          0.6786575              18.4672
       ...                                ...                  ...
        30                          0.9035706              24.5874
      -------------------------------------------------------------
                  HL-Gap            0.0000013 Eh            0.0000 eV
             Fermi-level           -0.0291305 Eh           -0.7927 eV

     #   Z          covCN         q      C6AA      α(0)
     1   6 C        2.920    -0.091    30.272     9.023
     2   6 C        2.920    -0.091    30.272     9.023
     3   6 C        2.920    -0.091    30.271     9.022
     4   6 C        2.920    -0.091    30.272     9.023
     5   6 C        2.920    -0.091    30.272     9.023
     6   6 C        2.920    -0.091    30.271     9.022
     7   1 H        0.926    -0.076     4.794     3.424
     8   1 H        0.926    -0.076     4.794     3.424
     9   1 H        0.926    -0.076     4.794     3.424
    10   1 H        0.926    -0.076     4.794     3.424
    11   1 H        0.926    -0.076     4.794     3.424
    12   1 H        0.926    -0.076     4.794     3.424

 Mol. C6AA /au·bohr⁶  :       2128.547168
 Mol. C8AA /au·bohr⁸  :      49800.645849
 Mol. α(0) /au        :         74.678248


Wiberg/Mayer (AO) data.
largest (>0.10) Wiberg bond orders for each atom

 ---------------------------------------------------------------------------
     #   Z sym  total        # sym  WBO       # sym  WBO       # sym  WBO
 ---------------------------------------------------------------------------
     1   6 C    3.764 --     6 C    1.343     2 C    1.342     7 H    0.968
     2   6 C    3.764 --     3 C    1.343     1 C    1.342     8 H    0.968
     3   6 C    3.764 --     4 C    1.343     2 C    1.343     9 H    0.968
     4   6 C    3.764 --     3 C    1.343     5 C    1.342    10 H    0.968
     5   6 C    3.764 --     6 C    1.343     4 C    1.342    11 H    0.968
     6   6 C    3.764 --     1 C    1.343     5 C    1.343    12 H    0.968
     7   1 H    0.994 --     1 C    0.968
     8   1 H    0.994 --     2 C    0.968
     9   1 H    0.994 --     3 C    0.968
    10   1 H    0.994 --     4 C    0.968
    11   1 H    0.994 --     5 C    0.968
    12   1 H    0.994 --     6 C    0.968
 ---------------------------------------------------------------------------

Topologies differ in total number of bonds
Writing topology from bond orders to xtbtopo.mol

molecular dipole:
                 x           y           z       tot (Debye)
 q only:        0.000       0.000      -0.000
   full:        0.000       0.000      -0.000       0.000
molecular quadrupole (traceless):
                xx          xy          yy          xz          yz          zz
 q only:       -3.410      -0.000      -3.404      -0.025       0.238       6.814
  q+dip:       -1.279      -0.001      -1.277      -0.009       0.088       2.556
   full:       -1.925      -0.001      -1.922      -0.014       0.133       3.847


           -------------------------------------------------
          | TOTAL ENERGY              -15.983570061942 Eh   |
          | GRADIENT NORM               0.039119737836 Eh/α |
          | HOMO-LUMO GAP               0.000035745020 eV   |
           -------------------------------------------------

------------------------------------------------------------------------
 * finished run on 2026/09/27 at 14:01:44.901     
------------------------------------------------------------------------
 total:
 * wall-time:     0 d,  0 h,  0 min,  0.050 sec
 *  cpu-time:     0 d,  0 h,  0 min,  0.000 sec
 * ratio c/w:     0.000 speedup
 SCF:
 * wall-time:     0 d,  0 h,  0 min,  0.018 sec
 *  cpu-time:     0 d,  0 h,  0 min,  0.000 sec
 * ratio c/w:     0.000 speedup

