      -----------------------------------------------------------      
     |                   =====================                   |     
     |                           x T B                           |     
     |                   =====================                   |     
     |                         S. Grimme                         |     
     |          Mulliken Center for Theoretical Chemistry        |     
     |                    University of Bonn                     |     
      -----------------------------------------------------------      

   * xtb version 6.7.1 (edcfbbe) compiled by 'VssAdministrator@runnervm171ch' on 2026-06-10

   xtb is free software: you can redistribute it and/or modify it under
   the terms of the GNU Lesser General Public License as published by
   the Free Software Foundation, either version 3 of the License, or
   (at your option) any later version.
   
   xtb is distributed in the hope that it will be useful,
   but WITHOUT ANY WARRANTY; without even the implied warranty of
   MERCHANTABILITY or FITNESS FOR A PARTICULAR PURPOSE.  See the
   GNU Lesser General Public License for more details.
   
   Cite this work as:
   * C. Bannwarth, E. Caldeweyher, S. Ehlert, A. Hansen, P. Pracht,
     J. Seibert, S. Spicher, S. Grimme, WIREs Comput. Mol. Sci., 2020, 11,
     e01493. DOI: 10.1002/wcms.1493
   
   for GFN2-xTB:
   * C. Bannwarth, S. Ehlert and S. Grimme., J. Chem. Theory Comput., 2019,
     15, 1652-1671. DOI: 10.1021/acs.jctc.8b01176
   for GFN1-xTB:
   * S. Grimme, C. Bannwarth, P. Shushkov, J. Chem. Theory Comput., 2017,
     13, 1989-2009. DOI: 10.1021/acs.jctc.7b00118
   for GFN0-xTB:
   * P. Pracht, E. Caldeweyher, S. Ehlert, S. Grimme, ChemRxiv, 2019, preprint.
     DOI: 10.26434/chemrxiv.8326202.v1
   for GFN-FF:
   * S. Spicher and S. Grimme, Angew. Chem. Int. Ed., 2020, 59, 15665-15673.
     DOI: 10.1002/anie.202004239
   
   for ALPB and GBSA implicit solvation:
   * S. Ehlert, M. Stahn, S. Spicher, S. Grimme, J. Chem. Theory Comput.,
     2021, 17, 4250-4261. DOI: 10.1021/acs.jctc.1c00471
   
   for ddCOSMO and CPCM-X implicit solvation:
   * M. Stahn, S. Ehlert, S. Grimme, J. Phys. Chem. A,
     2023, XX, XXXX-XXXX. DOI: 10.1021/acs.jpca.3c04382
   
   for DFT-D4:
   * E. Caldeweyher, C. Bannwarth and S. Grimme, J. Chem. Phys., 2017,
     147, 034112. DOI: 10.1063/1.4993215
   * E. Caldeweyher, S. Ehlert, A. Hansen, H. Neugebauer, S. Spicher,
     C. Bannwarth and S. Grimme, J. Chem. Phys., 2019, 150, 154122.
     DOI: 10.1063/1.5090222
   * E. Caldeweyher, J.-M. Mewes, S. Ehlert and S. Grimme, Phys. Chem. Chem. Phys.
     2020, 22, 8499-8512. DOI: 10.1039/D0CP00502A
   
   for sTDA-xTB:
   * S. Grimme and C. Bannwarth, J. Chem. Phys., 2016, 145, 054103.
     DOI: 10.1063/1.4959605
   
   in the mass-spec context:
   * V. Asgeirsson, C. Bauer and S. Grimme, Chem. Sci., 2017, 8, 4879.
     DOI: 10.1039/c7sc00601b
   * J. Koopman and S. Grimme, ACS Omega 2019, 4, 12, 15120-15133.
     DOI: 10.1021/acsomega.9b02011
   
   for metadynamics refer to:
   * S. Grimme, J. Chem. Theory Comput., 2019, 155, 2847-2862
     DOI: 10.1021/acs.jctc.9b00143
   
   for SPH calculations refer to:
   * S. Spicher and S. Grimme, J. Chem. Theory Comput., 2021, 17, 1701-1714
     DOI: 10.1021/acs.jctc.0c01306
   
   for ONIOM refer to:
   * C. Plett, A. Katbashev, S. Ehlert, S. Grimme, M. Bursch,
     Phys. Chem. Chem. Phys., 2023, 25, 17860-17868. DOI: 10.1039/D3CP02178E
   
   for DIPRO refer to:
   * J. Kohn, N. Gildemeister, S. Grimme, D. Fazzi, A. Hansen,
     J. Chem. Phys., 2023, just accepted.
   
   for PTB refer to:
   * S. Grimme, M. Mueller, A. Hansen, J. Chem. Phys., 2023, 158, 124111.
     DOI: 10.1063/5.0137838
   
   with help from (in alphabetical order)
   P. Atkinson, C. Bannwarth, F. Bohle, G. Brandenburg, E. Caldeweyher
   M. Checinski, S. Dohm, S. Ehlert, S. Ehrlich, I. Gerasimov, C. Hölzer
   A. Katbashev, J. Kohn, J. Koopman, C. Lavigne, S. Lehtola, F. März, M. Müller,
   F. Musil, H. Neugebauer, J. Pisarek, C. Plett, P. Pracht, F. Pultar,
   J. Seibert, P. Shushkov, S. Spicher, M. Stahn, M. Steiner, T. Strunk,
   J. Stückrath, T. Rose, and J. Unsleber
   
 * started run on 2026/09/27 at 14:01:45.086     
   ID    Z sym.   atoms
    1    6 C      1-3, 5, 6
    2    7 N      4
    3    1 H      7-11

           -------------------------------------------------
          |                Calculation Setup                |
           -------------------------------------------------

          program call               : xtb input.xyz --gfn 2 --alpb acetonitrile --chrg 1 --uhf 1 --scc --json --parallel 1 --norestart
          coordinate file            : input.xyz
          omp threads                :                     1


           -------------------------------------------------
          |                 G F N 2 - x T B                 |
           -------------------------------------------------

        Reference                      10.1021/acs.jctc.8b01176
      * Hamiltonian:
        H0-scaling (s, p, d)           1.850000    2.230000    2.230000
        zeta-weighting                 0.500000
      * Dispersion:
        s8                             2.700000
        a1                             0.520000
        a2                             5.000000
        s9                             5.000000
      * Repulsion:
        kExp                           1.500000    1.000000
        rExp                           1.000000
      * Coulomb:
        alpha                          2.000000
        third order                    shell-resolved
        anisotropic                    true
        a3                             3.000000
        a5                             4.000000
        cn-shift                       1.200000
        cn-exp                         4.000000
        max-rad                        5.000000

      * Solvation model:               ALPB
        Solvent                        acetonitrile
        Parameter file                 internal GFN2-xTB/ALPB
        Dielectric constant                3.7500E+01
        Reference state                gsolv [1 M gas/solution]
        Free energy shift                  5.1987E-03 Eh       3.2622E+00 kcal/mol
        Temperature                        2.9815E+02 K
        Density                            7.8600E-01 kg/L
        Solvent mass                       4.1050E+01 g/mol
        Interaction kernel             P16
        Born radius scaling (c1)           1.7214E+00
        Born radii integrator          GBOBC
        Born offset                        0.0000E+00 a0       0.0000E+00 AA
        H-bond correction              true
        Ion screening                  false
        Surface tension                    1.0000E-05 Eh       1.5569E+01 dyn/cm
        Grid points                               230 per atom

          ...................................................
          :                      SETUP                      :
          :.................................................:
          :  # basis functions                  29          :
          :  # atomic orbitals                  29          :
          :  # shells                           17          :
          :  # electrons                        29          :
          :  max. iterations                   250          :
          :  Hamiltonian                  GFN2-xTB          :
          :  restarted?                      false          :
          :  GBSA solvation                   true          :
          :  PC potential                    false          :
          :  electronic temp.          300.0000000     K    :
          :  accuracy                    1.0000000          :
          :  -> integral cutoff          0.2500000E+02      :
          :  -> integral neglect         0.1000000E-07      :
          :  -> SCF convergence          0.1000000E-05 Eh   :
          :  -> wf. convergence          0.1000000E-03 e    :
          :  Broyden damping             0.4000000          :
          :  net charge                          1          :
          :  unpaired electrons                  1          :
          ...................................................

 iter      E             dE          RMSdq      gap      omega  full diag
   1    -15.9431306 -0.159431E+02  0.564E+00    3.32       0.0  T
   2    -15.9866176 -0.434870E-01  0.375E+00    3.95       1.0  T
   3    -16.0034561 -0.168385E-01  0.213E+00    3.54       1.0  T
   4    -16.0097787 -0.632259E-02  0.659E-01    3.76       1.0  T
   5    -16.0159489 -0.617015E-02  0.982E-02    3.68       1.0  T
   6    -16.0159724 -0.235524E-04  0.402E-02    3.70       1.0  T
   7    -16.0159791 -0.668031E-05  0.211E-02    3.69       1.4  T
   8    -16.0159804 -0.132093E-05  0.547E-03    3.69       5.5  T
   9    -16.0159806 -0.195655E-06  0.132E-03    3.69      22.8  T
  10    -16.0159806 -0.931792E-09  0.213E-04    3.69     141.5  T
  11    -16.0159806 -0.143228E-09  0.100E-04    3.69     300.1  T

   *** convergence criteria satisfied after 11 iterations ***

         #    Occupation            Energy/Eh            Energy/eV
      -------------------------------------------------------------
         1        2.0000           -0.7595580             -20.6686
       ...           ...                  ...                  ...
         9        2.0000           -0.5698936             -15.5076
        10        2.0000           -0.5584166             -15.1953
        11        2.0000           -0.5520626             -15.0224
        12        2.0000           -0.5235313             -14.2460
        13        2.0000           -0.5082979             -13.8315
        14        2.0000           -0.5022197             -13.6661
        15        1.0000           -0.4757412             -12.9456 (HOMO)
        16                         -0.3400186              -9.2524 (LUMO)
        17                         -0.3195208              -8.6946
        18                         -0.1955164              -5.3203
        19                          0.0613236               1.6687
        20                          0.0705183               1.9189
       ...                                ...                  ...
        29                          0.5419980              14.7485
      -------------------------------------------------------------
                  HL-Gap            0.1357226 Eh            3.6932 eV
             Fermi-level           -0.4484298 Eh          -12.2024 eV

 SCC (total)                   0 d,  0 h,  0 min,  0.017 sec
 SCC setup                      ...        0 min,  0.001 sec (  4.401%)
 Dispersion                     ...        0 min,  0.000 sec (  0.756%)
 classical contributions        ...        0 min,  0.000 sec (  0.242%)
 integral evaluation            ...        0 min,  0.001 sec (  8.015%)
 iterations                     ...        0 min,  0.013 sec ( 73.108%)
 molecular gradient             ...        0 min,  0.002 sec ( 11.790%)
 printout                       ...        0 min,  0.000 sec (  1.568%)

         :::::::::::::::::::::::::::::::::::::::::::::::::::::
         ::                     SUMMARY                     ::
         :::::::::::::::::::::::::::::::::::::::::::::::::::::
         :: total energy             -15.731378269380 Eh    ::
         :: total w/o Gsasa/hb       -15.721729109263 Eh    ::
         :: gradient norm              0.088176723111 Eh/a0 ::
         :: HOMO-LUMO gap              3.693199556343 eV    ::
         ::.................................................::
         :: SCC energy               -16.015976189054 Eh    ::
         :: -> isotropic ES            0.103283556458 Eh    ::
         :: -> anisotropic ES         -0.018375549157 Eh    ::
         :: -> anisotropic XC          0.014937587797 Eh    ::
         :: -> dispersion             -0.006104143532 Eh    ::
         :: -> Gsolv                  -0.081916352449 Eh    ::
         ::    -> Gelec               -0.072267192332 Eh    ::
         ::    -> Gsasa               -0.011713028394 Eh    ::
         ::    -> Ghb                 -0.003134786475 Eh    ::
         ::    -> Gshift               0.005198654751 Eh    ::
         :: repulsion energy           0.284597919674 Eh    ::
         :: add. restraining           0.000000000000 Eh    ::
         :: total charge               1.000000000000 e     ::
         :::::::::::::::::::::::::::::::::::::::::::::::::::::

           -------------------------------------------------
          |                Property Printout                |
           -------------------------------------------------

    * Orbital Energies and Occupations

         #    Occupation            Energy/Eh            Energy/eV
      -------------------------------------------------------------
         1        2.0000           -0.7595580             -20.6686
       ...           ...                  ...                  ...
         3        2.0000           -0.7138925             -19.4260
         4        2.0000           -0.6743876             -18.3510
         5        2.0000           -0.6667035             -18.1419
         6        2.0000           -0.6154162             -16.7463
         7        2.0000           -0.6046118             -16.4523
         8        2.0000           -0.6024144             -16.3925
         9        2.0000           -0.5698936             -15.5076
        10        2.0000           -0.5584166             -15.1953
        11        2.0000           -0.5520626             -15.0224
        12        2.0000           -0.5235313             -14.2460
        13        2.0000           -0.5082979             -13.8315
        14        2.0000           -0.5022197             -13.6661
        15        1.0000           -0.4757412             -12.9456 (HOMO)
        16                         -0.3400186              -9.2524 (LUMO)
        17                         -0.3195208              -8.6946
        18                         -0.1955164              -5.3203
        19                          0.0613236               1.6687
        20                          0.0705183               1.9189
        21                          0.0979531               2.6654
        22                          0.1111957               3.0258
        23                          0.1121190               3.0509
        24                          0.2224009               6.0518
        25                          0.3120864               8.4923
        26                          0.3362498               9.1498
       ...                                ...                  ...
        29                          0.5419980              14.7485
      -------------------------------------------------------------
                  HL-Gap            0.1357226 Eh            3.6932 eV
             Fermi-level           -0.4484298 Eh          -12.2024 eV

     #   Z          covCN         q      C6AA      α(0)
     1   6 C        2.929     0.012    27.755     8.640
     2   6 C        2.914     0.002    27.983     8.674
     3   6 C        2.913     0.066    26.512     8.443
     4   7 N        1.835     0.025    21.497     6.871
     5   6 C        2.913     0.066    26.512     8.443
     6   6 C        2.914     0.002    27.983     8.674
     7   1 H        0.926     0.182     1.196     1.710
     8   1 H        0.926     0.154     1.367     1.829
     9   1 H        0.925     0.169     1.270     1.763
    10   1 H        0.925     0.169     1.271     1.763
    11   1 H        0.926     0.154     1.368     1.829

 Mol. C6AA /au·bohr⁶  :       1328.354334
 Mol. C8AA /au·bohr⁸  :      33145.750615
 Mol. α(0) /au        :         58.638439


Wiberg/Mayer (AO) data.
largest (>0.10) Wiberg bond orders for each atom

 ---------------------------------------------------------------------------
     #   Z sym  total        # sym  WBO       # sym  WBO       # sym  WBO
 ---------------------------------------------------------------------------
     1   6 C    3.975 --     6 C    1.446     2 C    1.446     7 H    0.870
                             4 N    0.151
     2   6 C    3.959 --     1 C    1.446     3 C    1.359     8 H    0.927
                             5 C    0.122
     3   6 C    3.949 --     4 N    1.493     2 C    1.359     9 H    0.903
                             6 C    0.122
     4   7 N    3.391 --     5 C    1.493     3 C    1.493     1 C    0.151
     5   6 C    3.949 --     4 N    1.493     6 C    1.358    10 H    0.903
                             2 C    0.122
     6   6 C    3.959 --     1 C    1.446     5 C    1.358    11 H    0.927
                             3 C    0.122
     7   1 H    0.963 --     1 C    0.870
     8   1 H    0.976 --     2 C    0.927
     9   1 H    0.970 --     3 C    0.903
    10   1 H    0.970 --     5 C    0.903
    11   1 H    0.976 --     6 C    0.927
 ---------------------------------------------------------------------------

Topologies differ in total number of bonds
Writing topology from bond orders to xtbtopo.mol

molecular dipole:
                 x           y           z       tot (Debye)
 q only:       -0.003       0.124      -0.005
   full:       -0.004       0.188      -0.008       0.478
molecular quadrupole (traceless):
                xx          xy          yy          xz          yz          zz
 q only:        6.761       0.079       2.457      -0.373      -0.476      -9.219
  q+dip:        8.222       0.077       3.843      -0.473      -0.648     -12.065
   full:        6.747       0.080       2.428      -0.372      -0.473      -9.175


           -------------------------------------------------
          | TOTAL ENERGY              -15.731378269380 Eh   |
          | GRADIENT NORM               0.088176723111 Eh/α |
          | HOMO-LUMO GAP               3.693199556343 eV   |
           -------------------------------------------------

------------------------------------------------------------------------
 * finished run on 2026/09/27 at 14:01:45.125     
------------------------------------------------------------------------
 total:
 * wall-time:     0 d,  0 h,  0 min,  0.038 sec
 *  cpu-time:     0 d,  0 h,  0 min,  0.000 sec
 * ratio c/w:     0.000 speedup
 SCF:
 * wall-time:     0 d,  0 h,  0 min,  0.018 sec
 *  cpu-time:     0 d,  0 h,  0 min,  0.000 sec
 * ratio c/w:     0.000 speedup

