      -----------------------------------------------------------      
     |                   =====================                   |     
     |                           x T B                           |     
     |                   =====================                   |     
     |                         S. Grimme                         |     
     |          Mulliken Center for Theoretical Chemistry        |     
     |                    University of Bonn                     |     
      -----------------------------------------------------------      

   * xtb version 6.7.1 (edcfbbe) compiled by 'VssAdministrator@runnervm171ch' on 2026-06-10

   xtb is free software: you can redistribute it and/or modify it under
   the terms of the GNU Lesser General Public License as published by
   the Free Software Foundation, either version 3 of the License, or
   (at your option) any later version.
   
   xtb is distributed in the hope that it will be useful,
   but WITHOUT ANY WARRANTY; without even the implied warranty of
   MERCHANTABILITY or FITNESS FOR A PARTICULAR PURPOSE.  See the
   GNU Lesser General Public License for more details.
   
   Cite this work as:
   * C. Bannwarth, E. Caldeweyher, S. Ehlert, A. Hansen, P. Pracht,
     J. Seibert, S. Spicher, S. Grimme, WIREs Comput. Mol. Sci., 2020, 11,
     e01493. DOI: 10.1002/wcms.1493
   
   for GFN2-xTB:
   * C. Bannwarth, S. Ehlert and S. Grimme., J. Chem. Theory Comput., 2019,
     15, 1652-1671. DOI: 10.1021/acs.jctc.8b01176
   for GFN1-xTB:
   * S. Grimme, C. Bannwarth, P. Shushkov, J. Chem. Theory Comput., 2017,
     13, 1989-2009. DOI: 10.1021/acs.jctc.7b00118
   for GFN0-xTB:
   * P. Pracht, E. Caldeweyher, S. Ehlert, S. Grimme, ChemRxiv, 2019, preprint.
     DOI: 10.26434/chemrxiv.8326202.v1
   for GFN-FF:
   * S. Spicher and S. Grimme, Angew. Chem. Int. Ed., 2020, 59, 15665-15673.
     DOI: 10.1002/anie.202004239
   
   for ALPB and GBSA implicit solvation:
   * S. Ehlert, M. Stahn, S. Spicher, S. Grimme, J. Chem. Theory Comput.,
     2021, 17, 4250-4261. DOI: 10.1021/acs.jctc.1c00471
   
   for ddCOSMO and CPCM-X implicit solvation:
   * M. Stahn, S. Ehlert, S. Grimme, J. Phys. Chem. A,
     2023, XX, XXXX-XXXX. DOI: 10.1021/acs.jpca.3c04382
   
   for DFT-D4:
   * E. Caldeweyher, C. Bannwarth and S. Grimme, J. Chem. Phys., 2017,
     147, 034112. DOI: 10.1063/1.4993215
   * E. Caldeweyher, S. Ehlert, A. Hansen, H. Neugebauer, S. Spicher,
     C. Bannwarth and S. Grimme, J. Chem. Phys., 2019, 150, 154122.
     DOI: 10.1063/1.5090222
   * E. Caldeweyher, J.-M. Mewes, S. Ehlert and S. Grimme, Phys. Chem. Chem. Phys.
     2020, 22, 8499-8512. DOI: 10.1039/D0CP00502A
   
   for sTDA-xTB:
   * S. Grimme and C. Bannwarth, J. Chem. Phys., 2016, 145, 054103.
     DOI: 10.1063/1.4959605
   
   in the mass-spec context:
   * V. Asgeirsson, C. Bauer and S. Grimme, Chem. Sci., 2017, 8, 4879.
     DOI: 10.1039/c7sc00601b
   * J. Koopman and S. Grimme, ACS Omega 2019, 4, 12, 15120-15133.
     DOI: 10.1021/acsomega.9b02011
   
   for metadynamics refer to:
   * S. Grimme, J. Chem. Theory Comput., 2019, 155, 2847-2862
     DOI: 10.1021/acs.jctc.9b00143
   
   for SPH calculations refer to:
   * S. Spicher and S. Grimme, J. Chem. Theory Comput., 2021, 17, 1701-1714
     DOI: 10.1021/acs.jctc.0c01306
   
   for ONIOM refer to:
   * C. Plett, A. Katbashev, S. Ehlert, S. Grimme, M. Bursch,
     Phys. Chem. Chem. Phys., 2023, 25, 17860-17868. DOI: 10.1039/D3CP02178E
   
   for DIPRO refer to:
   * J. Kohn, N. Gildemeister, S. Grimme, D. Fazzi, A. Hansen,
     J. Chem. Phys., 2023, just accepted.
   
   for PTB refer to:
   * S. Grimme, M. Mueller, A. Hansen, J. Chem. Phys., 2023, 158, 124111.
     DOI: 10.1063/5.0137838
   
   with help from (in alphabetical order)
   P. Atkinson, C. Bannwarth, F. Bohle, G. Brandenburg, E. Caldeweyher
   M. Checinski, S. Dohm, S. Ehlert, S. Ehrlich, I. Gerasimov, C. Hölzer
   A. Katbashev, J. Kohn, J. Koopman, C. Lavigne, S. Lehtola, F. März, M. Müller,
   F. Musil, H. Neugebauer, J. Pisarek, C. Plett, P. Pracht, F. Pultar,
   J. Seibert, P. Shushkov, S. Spicher, M. Stahn, M. Steiner, T. Strunk,
   J. Stückrath, T. Rose, and J. Unsleber
   
 * started run on 2026/09/27 at 14:01:45.812     
   ID    Z sym.   atoms
    1    6 C      1, 3-8
    2    8 O      2
    3    1 H      9-16

           -------------------------------------------------
          |                Calculation Setup                |
           -------------------------------------------------

          program call               : xtb input.xyz --gfn 2 --chrg 0 --uhf 0 --scc --json --parallel 1 --norestart
          coordinate file            : input.xyz
          omp threads                :                     1


           -------------------------------------------------
          |                 G F N 2 - x T B                 |
           -------------------------------------------------

        Reference                      10.1021/acs.jctc.8b01176
      * Hamiltonian:
        H0-scaling (s, p, d)           1.850000    2.230000    2.230000
        zeta-weighting                 0.500000
      * Dispersion:
        s8                             2.700000
        a1                             0.520000
        a2                             5.000000
        s9                             5.000000
      * Repulsion:
        kExp                           1.500000    1.000000
        rExp                           1.000000
      * Coulomb:
        alpha                          2.000000
        third order                    shell-resolved
        anisotropic                    true
        a3                             3.000000
        a5                             4.000000
        cn-shift                       1.200000
        cn-exp                         4.000000
        max-rad                        5.000000


          ...................................................
          :                      SETUP                      :
          :.................................................:
          :  # basis functions                  40          :
          :  # atomic orbitals                  40          :
          :  # shells                           24          :
          :  # electrons                        42          :
          :  max. iterations                   250          :
          :  Hamiltonian                  GFN2-xTB          :
          :  restarted?                      false          :
          :  GBSA solvation                  false          :
          :  PC potential                    false          :
          :  electronic temp.          300.0000000     K    :
          :  accuracy                    1.0000000          :
          :  -> integral cutoff          0.2500000E+02      :
          :  -> integral neglect         0.1000000E-07      :
          :  -> SCF convergence          0.1000000E-05 Eh   :
          :  -> wf. convergence          0.1000000E-03 e    :
          :  Broyden damping             0.4000000          :
          :  net charge                          0          :
          :  unpaired electrons                  0          :
          ...................................................

 iter      E             dE          RMSdq      gap      omega  full diag
   1    -23.4459634 -0.234460E+02  0.454E+00    4.23       0.0  T
   2    -23.4745277 -0.285643E-01  0.262E+00    4.25       1.0  T
   3    -23.4720019  0.252579E-02  0.105E+00    4.20       1.0  T
   4    -23.4763405 -0.433859E-02  0.341E-01    4.27       1.0  T
   5    -23.4770943 -0.753834E-03  0.734E-02    4.27       1.0  T
   6    -23.4771025 -0.823771E-05  0.409E-02    4.26       1.0  T
   7    -23.4771075 -0.494738E-05  0.161E-02    4.26       1.6  T
   8    -23.4771081 -0.638064E-06  0.313E-03    4.26       8.0  T
   9    -23.4771082 -0.509398E-07  0.159E-03    4.26      15.8  T
  10    -23.4771082 -0.203765E-07  0.852E-04    4.26      29.3  T
  11    -23.4771082 -0.179027E-08  0.181E-04    4.26     138.3  T

   *** convergence criteria satisfied after 11 iterations ***

         #    Occupation            Energy/Eh            Energy/eV
      -------------------------------------------------------------
         1        2.0000           -0.7126444             -19.3920
       ...           ...                  ...                  ...
        15        2.0000           -0.4746307             -12.9154
        16        2.0000           -0.4620337             -12.5726
        17        2.0000           -0.4466242             -12.1533
        18        2.0000           -0.4327406             -11.7755
        19        2.0000           -0.4180863             -11.3767
        20        2.0000           -0.4021441             -10.9429
        21        2.0000           -0.3771437             -10.2626 (HOMO)
        22                         -0.2205061              -6.0003 (LUMO)
        23                         -0.2108318              -5.7370
        24                         -0.0859844              -2.3398
        25                          0.0305152               0.8304
        26                          0.1125474               3.0626
       ...                                ...                  ...
        40                          0.6746916              18.3593
      -------------------------------------------------------------
                  HL-Gap            0.1566376 Eh            4.2623 eV
             Fermi-level           -0.2988249 Eh           -8.1314 eV

 SCC (total)                   0 d,  0 h,  0 min,  0.019 sec
 SCC setup                      ...        0 min,  0.000 sec (  1.608%)
 Dispersion                     ...        0 min,  0.000 sec (  0.830%)
 classical contributions        ...        0 min,  0.000 sec (  0.236%)
 integral evaluation            ...        0 min,  0.002 sec (  8.616%)
 iterations                     ...        0 min,  0.010 sec ( 52.189%)
 molecular gradient             ...        0 min,  0.007 sec ( 34.752%)
 printout                       ...        0 min,  0.000 sec (  1.668%)

         :::::::::::::::::::::::::::::::::::::::::::::::::::::
         ::                     SUMMARY                     ::
         :::::::::::::::::::::::::::::::::::::::::::::::::::::
         :: total energy             -23.113174483345 Eh    ::
         :: gradient norm              0.004141126192 Eh/a0 ::
         :: HOMO-LUMO gap              4.262325794900 eV    ::
         ::.................................................::
         :: SCC energy               -23.477095583946 Eh    ::
         :: -> isotropic ES            0.015628534085 Eh    ::
         :: -> anisotropic ES          0.003422956493 Eh    ::
         :: -> anisotropic XC          0.010241325038 Eh    ::
         :: -> dispersion             -0.011544427418 Eh    ::
         :: repulsion energy           0.363921100601 Eh    ::
         :: add. restraining           0.000000000000 Eh    ::
         :: total charge              -0.000000000000 e     ::
         :::::::::::::::::::::::::::::::::::::::::::::::::::::

           -------------------------------------------------
          |                Property Printout                |
           -------------------------------------------------

    * Orbital Energies and Occupations

         #    Occupation            Energy/Eh            Energy/eV
      -------------------------------------------------------------
         1        2.0000           -0.7126444             -19.3920
       ...           ...                  ...                  ...
         9        2.0000           -0.5509777             -14.9929
        10        2.0000           -0.5357506             -14.5785
        11        2.0000           -0.5121675             -13.9368
        12        2.0000           -0.4937299             -13.4351
        13        2.0000           -0.4831068             -13.1460
        14        2.0000           -0.4804679             -13.0742
        15        2.0000           -0.4746307             -12.9154
        16        2.0000           -0.4620337             -12.5726
        17        2.0000           -0.4466242             -12.1533
        18        2.0000           -0.4327406             -11.7755
        19        2.0000           -0.4180863             -11.3767
        20        2.0000           -0.4021441             -10.9429
        21        2.0000           -0.3771437             -10.2626 (HOMO)
        22                         -0.2205061              -6.0003 (LUMO)
        23                         -0.2108318              -5.7370
        24                         -0.0859844              -2.3398
        25                          0.0305152               0.8304
        26                          0.1125474               3.0626
        27                          0.1174386               3.1957
        28                          0.1454146               3.9569
        29                          0.1612692               4.3884
        30                          0.1773036               4.8247
        31                          0.1925130               5.2385
        32                          0.1948310               5.3016
       ...                                ...                  ...
        40                          0.6746916              18.3593
      -------------------------------------------------------------
                  HL-Gap            0.1566376 Eh            4.2623 eV
             Fermi-level           -0.2988249 Eh           -8.1314 eV

     #   Z          covCN         q      C6AA      α(0)
     1   6 C        3.642     0.038    20.276     6.474
     2   8 O        1.705    -0.274    18.547     5.815
     3   6 C        2.864     0.143    24.876     8.175
     4   6 C        2.920    -0.054    29.346     8.883
     5   6 C        2.920    -0.029    28.732     8.790
     6   6 C        2.918    -0.042    29.048     8.838
     7   6 C        2.921    -0.031    28.774     8.797
     8   6 C        2.917    -0.067    29.657     8.930
     9   1 H        0.925     0.061     2.188     2.313
    10   1 H        0.924     0.040     2.451     2.448
    11   1 H        0.924     0.040     2.452     2.449
    12   1 H        0.926     0.046     2.376     2.410
    13   1 H        0.926     0.035     2.516     2.481
    14   1 H        0.926     0.031     2.570     2.507
    15   1 H        0.926     0.032     2.565     2.504
    16   1 H        0.926     0.032     2.558     2.501

 Mol. C6AA /au·bohr⁶  :       2833.549430
 Mol. C8AA /au·bohr⁸  :      66918.253086
 Mol. α(0) /au        :         84.316362


Wiberg/Mayer (AO) data.
largest (>0.10) Wiberg bond orders for each atom

 ---------------------------------------------------------------------------
     #   Z sym  total        # sym  WBO       # sym  WBO       # sym  WBO
 ---------------------------------------------------------------------------
     1   6 C    3.948 --     2 O    0.985     9 H    0.980    11 H    0.977
                            10 H    0.977
     2   8 O    2.226 --     3 C    1.058     1 C    0.985
     3   6 C    3.934 --     8 C    1.379     4 C    1.350     2 O    1.058
     4   6 C    3.988 --     5 C    1.471     3 C    1.350    12 H    0.969
                             7 C    0.111
     5   6 C    3.992 --     4 C    1.471     6 C    1.418    13 H    0.971
                             8 C    0.104
     6   6 C    3.992 --     7 C    1.449     5 C    1.418    14 H    0.972
     7   6 C    3.992 --     6 C    1.449     8 C    1.435    15 H    0.971
                             4 C    0.111
     8   6 C    3.988 --     7 C    1.435     3 C    1.379    16 H    0.967
                             5 C    0.104
     9   1 H    0.996 --     1 C    0.980
    10   1 H    0.998 --     1 C    0.977
    11   1 H    0.998 --     1 C    0.977
    12   1 H    0.998 --     4 C    0.969
    13   1 H    0.998 --     5 C    0.971
    14   1 H    0.999 --     6 C    0.972
    15   1 H    0.999 --     7 C    0.971
    16   1 H    0.999 --     8 C    0.967
 ---------------------------------------------------------------------------

Topologies differ in total number of bonds
Writing topology from bond orders to xtbtopo.mol

molecular dipole:
                 x           y           z       tot (Debye)
 q only:       -0.228      -0.308      -0.113
   full:       -0.292      -0.453      -0.160       1.429
molecular quadrupole (traceless):
                xx          xy          yy          xz          yz          zz
 q only:        3.514       2.253      -1.386       1.377       0.487      -2.128
  q+dip:        4.034       2.348       0.205       1.807       1.468      -4.239
   full:        3.503       2.721      -1.022       1.531       0.702      -2.480


           -------------------------------------------------
          | TOTAL ENERGY              -23.113174483345 Eh   |
          | GRADIENT NORM               0.004141126192 Eh/α |
          | HOMO-LUMO GAP               4.262325794900 eV   |
           -------------------------------------------------

------------------------------------------------------------------------
 * finished run on 2026/09/27 at 14:01:45.859     
------------------------------------------------------------------------
 total:
 * wall-time:     0 d,  0 h,  0 min,  0.045 sec
 *  cpu-time:     0 d,  0 h,  0 min,  0.000 sec
 * ratio c/w:     0.000 speedup
 SCF:
 * wall-time:     0 d,  0 h,  0 min,  0.019 sec
 *  cpu-time:     0 d,  0 h,  0 min,  0.000 sec
 * ratio c/w:     0.000 speedup

