      -----------------------------------------------------------      
     |                   =====================                   |     
     |                           x T B                           |     
     |                   =====================                   |     
     |                         S. Grimme                         |     
     |          Mulliken Center for Theoretical Chemistry        |     
     |                    University of Bonn                     |     
      -----------------------------------------------------------      

   * xtb version 6.7.1 (edcfbbe) compiled by 'VssAdministrator@runnervm171ch' on 2026-06-10

   xtb is free software: you can redistribute it and/or modify it under
   the terms of the GNU Lesser General Public License as published by
   the Free Software Foundation, either version 3 of the License, or
   (at your option) any later version.
   
   xtb is distributed in the hope that it will be useful,
   but WITHOUT ANY WARRANTY; without even the implied warranty of
   MERCHANTABILITY or FITNESS FOR A PARTICULAR PURPOSE.  See the
   GNU Lesser General Public License for more details.
   
   Cite this work as:
   * C. Bannwarth, E. Caldeweyher, S. Ehlert, A. Hansen, P. Pracht,
     J. Seibert, S. Spicher, S. Grimme, WIREs Comput. Mol. Sci., 2020, 11,
     e01493. DOI: 10.1002/wcms.1493
   
   for GFN2-xTB:
   * C. Bannwarth, S. Ehlert and S. Grimme., J. Chem. Theory Comput., 2019,
     15, 1652-1671. DOI: 10.1021/acs.jctc.8b01176
   for GFN1-xTB:
   * S. Grimme, C. Bannwarth, P. Shushkov, J. Chem. Theory Comput., 2017,
     13, 1989-2009. DOI: 10.1021/acs.jctc.7b00118
   for GFN0-xTB:
   * P. Pracht, E. Caldeweyher, S. Ehlert, S. Grimme, ChemRxiv, 2019, preprint.
     DOI: 10.26434/chemrxiv.8326202.v1
   for GFN-FF:
   * S. Spicher and S. Grimme, Angew. Chem. Int. Ed., 2020, 59, 15665-15673.
     DOI: 10.1002/anie.202004239
   
   for ALPB and GBSA implicit solvation:
   * S. Ehlert, M. Stahn, S. Spicher, S. Grimme, J. Chem. Theory Comput.,
     2021, 17, 4250-4261. DOI: 10.1021/acs.jctc.1c00471
   
   for ddCOSMO and CPCM-X implicit solvation:
   * M. Stahn, S. Ehlert, S. Grimme, J. Phys. Chem. A,
     2023, XX, XXXX-XXXX. DOI: 10.1021/acs.jpca.3c04382
   
   for DFT-D4:
   * E. Caldeweyher, C. Bannwarth and S. Grimme, J. Chem. Phys., 2017,
     147, 034112. DOI: 10.1063/1.4993215
   * E. Caldeweyher, S. Ehlert, A. Hansen, H. Neugebauer, S. Spicher,
     C. Bannwarth and S. Grimme, J. Chem. Phys., 2019, 150, 154122.
     DOI: 10.1063/1.5090222
   * E. Caldeweyher, J.-M. Mewes, S. Ehlert and S. Grimme, Phys. Chem. Chem. Phys.
     2020, 22, 8499-8512. DOI: 10.1039/D0CP00502A
   
   for sTDA-xTB:
   * S. Grimme and C. Bannwarth, J. Chem. Phys., 2016, 145, 054103.
     DOI: 10.1063/1.4959605
   
   in the mass-spec context:
   * V. Asgeirsson, C. Bauer and S. Grimme, Chem. Sci., 2017, 8, 4879.
     DOI: 10.1039/c7sc00601b
   * J. Koopman and S. Grimme, ACS Omega 2019, 4, 12, 15120-15133.
     DOI: 10.1021/acsomega.9b02011
   
   for metadynamics refer to:
   * S. Grimme, J. Chem. Theory Comput., 2019, 155, 2847-2862
     DOI: 10.1021/acs.jctc.9b00143
   
   for SPH calculations refer to:
   * S. Spicher and S. Grimme, J. Chem. Theory Comput., 2021, 17, 1701-1714
     DOI: 10.1021/acs.jctc.0c01306
   
   for ONIOM refer to:
   * C. Plett, A. Katbashev, S. Ehlert, S. Grimme, M. Bursch,
     Phys. Chem. Chem. Phys., 2023, 25, 17860-17868. DOI: 10.1039/D3CP02178E
   
   for DIPRO refer to:
   * J. Kohn, N. Gildemeister, S. Grimme, D. Fazzi, A. Hansen,
     J. Chem. Phys., 2023, just accepted.
   
   for PTB refer to:
   * S. Grimme, M. Mueller, A. Hansen, J. Chem. Phys., 2023, 158, 124111.
     DOI: 10.1063/5.0137838
   
   with help from (in alphabetical order)
   P. Atkinson, C. Bannwarth, F. Bohle, G. Brandenburg, E. Caldeweyher
   M. Checinski, S. Dohm, S. Ehlert, S. Ehrlich, I. Gerasimov, C. Hölzer
   A. Katbashev, J. Kohn, J. Koopman, C. Lavigne, S. Lehtola, F. März, M. Müller,
   F. Musil, H. Neugebauer, J. Pisarek, C. Plett, P. Pracht, F. Pultar,
   J. Seibert, P. Shushkov, S. Spicher, M. Stahn, M. Steiner, T. Strunk,
   J. Stückrath, T. Rose, and J. Unsleber
   
 * started run on 2026/09/27 at 14:01:44.316     
   ID    Z sym.   atoms
    1    6 C      1-6
    2    1 H      7-12

           -------------------------------------------------
          |                Calculation Setup                |
           -------------------------------------------------

          program call               : xtb input.xyz --gfn 2 --alpb acetonitrile --chrg 0 --uhf 0 --opt tight --json --parallel 1 --norestart
          coordinate file            : input.xyz
          omp threads                :                     1


           -------------------------------------------------
          |                 G F N 2 - x T B                 |
           -------------------------------------------------

        Reference                      10.1021/acs.jctc.8b01176
      * Hamiltonian:
        H0-scaling (s, p, d)           1.850000    2.230000    2.230000
        zeta-weighting                 0.500000
      * Dispersion:
        s8                             2.700000
        a1                             0.520000
        a2                             5.000000
        s9                             5.000000
      * Repulsion:
        kExp                           1.500000    1.000000
        rExp                           1.000000
      * Coulomb:
        alpha                          2.000000
        third order                    shell-resolved
        anisotropic                    true
        a3                             3.000000
        a5                             4.000000
        cn-shift                       1.200000
        cn-exp                         4.000000
        max-rad                        5.000000

      * Solvation model:               ALPB
        Solvent                        acetonitrile
        Parameter file                 internal GFN2-xTB/ALPB
        Dielectric constant                3.7500E+01
        Reference state                gsolv [1 M gas/solution]
        Free energy shift                  5.1987E-03 Eh       3.2622E+00 kcal/mol
        Temperature                        2.9815E+02 K
        Density                            7.8600E-01 kg/L
        Solvent mass                       4.1050E+01 g/mol
        Interaction kernel             P16
        Born radius scaling (c1)           1.7214E+00
        Born radii integrator          GBOBC
        Born offset                        0.0000E+00 a0       0.0000E+00 AA
        H-bond correction              true
        Ion screening                  false
        Surface tension                    1.0000E-05 Eh       1.5569E+01 dyn/cm
        Grid points                               230 per atom

          ...................................................
          :                      SETUP                      :
          :.................................................:
          :  # basis functions                  30          :
          :  # atomic orbitals                  30          :
          :  # shells                           18          :
          :  # electrons                        30          :
          :  max. iterations                   250          :
          :  Hamiltonian                  GFN2-xTB          :
          :  restarted?                      false          :
          :  GBSA solvation                   true          :
          :  PC potential                    false          :
          :  electronic temp.          300.0000000     K    :
          :  accuracy                    1.0000000          :
          :  -> integral cutoff          0.2500000E+02      :
          :  -> integral neglect         0.1000000E-07      :
          :  -> SCF convergence          0.1000000E-05 Eh   :
          :  -> wf. convergence          0.1000000E-03 e    :
          :  Broyden damping             0.4000000          :
          :  net charge                          0          :
          :  unpaired electrons                  0          :
          ...................................................

 iter      E             dE          RMSdq      gap      omega  full diag
   1    -16.1735527 -0.161736E+02  0.493E+00    4.84       0.0  T
   2    -16.1826951 -0.914244E-02  0.295E+00    4.84       1.0  T
   3    -16.1831240 -0.428861E-03  0.385E-01    4.83       1.0  T
   4    -16.1834343 -0.310349E-03  0.477E-02    4.83       1.0  T
   5    -16.1834344 -0.307496E-07  0.762E-03    4.83       3.8  T
   6    -16.1834344 -0.201779E-07  0.729E-04    4.83      39.6  T
   7    -16.1834344  0.134364E-09  0.178E-04    4.83     162.4  T

   *** convergence criteria satisfied after 7 iterations ***

         #    Occupation            Energy/Eh            Energy/eV
      -------------------------------------------------------------
         1        2.0000           -0.6381402             -17.3647
       ...           ...                  ...                  ...
         9        2.0000           -0.4746637             -12.9163
        10        2.0000           -0.4746627             -12.9162
        11        2.0000           -0.4711846             -12.8216
        12        2.0000           -0.4209338             -11.4542
        13        2.0000           -0.4209335             -11.4542
        14        2.0000           -0.4003000             -10.8927
        15        2.0000           -0.4002981             -10.8927 (HOMO)
        16                         -0.2229483              -6.0667 (LUMO)
        17                         -0.2229462              -6.0667
        18                         -0.0954808              -2.5982
        19                          0.1118092               3.0425
        20                          0.1234468               3.3592
       ...                                ...                  ...
        30                          0.6440675              17.5260
      -------------------------------------------------------------
                  HL-Gap            0.1773497 Eh            4.8259 eV
             Fermi-level           -0.3116232 Eh           -8.4797 eV

 SCC (total)                   0 d,  0 h,  0 min,  0.023 sec
 SCC setup                      ...        0 min,  0.004 sec ( 18.838%)
 Dispersion                     ...        0 min,  0.001 sec (  3.851%)
 classical contributions        ...        0 min,  0.000 sec (  1.267%)
 integral evaluation            ...        0 min,  0.002 sec (  8.747%)
 iterations                     ...        0 min,  0.012 sec ( 51.041%)
 molecular gradient             ...        0 min,  0.003 sec ( 13.423%)
 printout                       ...        0 min,  0.001 sec (  2.597%)

         :::::::::::::::::::::::::::::::::::::::::::::::::::::
         ::                     SUMMARY                     ::
         :::::::::::::::::::::::::::::::::::::::::::::::::::::
         :: total energy             -15.884954206247 Eh    ::
         :: total w/o Gsasa/hb       -15.878900927459 Eh    ::
         :: gradient norm              0.018146090398 Eh/a0 ::
         :: HOMO-LUMO gap              4.825931382374 eV    ::
         ::.................................................::
         :: SCC energy               -16.183427363607 Eh    ::
         :: -> isotropic ES            0.000933684037 Eh    ::
         :: -> anisotropic ES          0.002711472932 Eh    ::
         :: -> anisotropic XC          0.013017737135 Eh    ::
         :: -> dispersion             -0.007973193045 Eh    ::
         :: -> Gsolv                  -0.006126765949 Eh    ::
         ::    -> Gelec               -0.000073487160 Eh    ::
         ::    -> Gsasa               -0.011121273412 Eh    ::
         ::    -> Ghb                 -0.000130660128 Eh    ::
         ::    -> Gshift               0.005198654751 Eh    ::
         :: repulsion energy           0.298473157360 Eh    ::
         :: add. restraining           0.000000000000 Eh    ::
         :: total charge              -0.000000000000 e     ::
         :::::::::::::::::::::::::::::::::::::::::::::::::::::

      ----------------------------------------------------------- 
     |                   =====================                   |
     |                        A N C O P T                        |
     |                   =====================                   |
     |               Approximate Normal Coordinate               |
     |                Rational Function Optimizer                |
      ----------------------------------------------------------- 
      ----------------------------------------------------------- 
     |                   =====================                   |
     |                        A N C O P T                        |
     |                   =====================                   |
     |               Approximate Normal Coordinate               |
     |                Rational Function Optimizer                |
      ----------------------------------------------------------- 

          ...................................................
          :                      SETUP                      :
          :.................................................:
          :   optimization level             tight          :
          :   max. optcycles                   200          :
          :   ANC micro-cycles                  20          :
          :   degrees of freedom                30          :
          :.................................................:
          :   RF solver                   davidson          :
          :   write xtbopt.log                true          :
          :   linear?                        false          :
          :   energy convergence         0.1000000E-05 Eh   :
          :   grad. convergence          0.8000000E-03 Eh/α :
          :   maxmium RF displ.          1.0000000          :
          :   Hlow (freq-cutoff)         0.1000000E-01      :
          :   Hmax (freq-cutoff)         5.0000000          :
          :   S6 in model hess.         20.0000000          :
          ...................................................

generating ANC from exact Hessian ...
Using Lindh-Hessian (1995)
 Shifting diagonal of input Hessian by    0.0000000000000000     
 Lowest  eigenvalues of input Hessian
    0.000000    0.000000    0.000000    0.000000    0.000000    0.000000
    0.013819    0.013830    0.022797    0.024297    0.063000    0.063092
    0.091643    0.091660    0.095736    0.095755    0.096549    0.120234
 Highest eigenvalues
    1.329219    1.540545    1.540553    1.837989    1.942361    1.942412


........................................................................
.............................. CYCLE    1 ..............................
........................................................................

 iter      E             dE          RMSdq      gap      omega  full diag
   1    -16.1834344 -0.161834E+02  0.126E-05    4.83       0.0  T
   2    -16.1834344 -0.351719E-12  0.607E-06    4.83    4755.1  T
   3    -16.1834344  0.213163E-13  0.239E-06    4.83   12089.0  T
     SCC iter.                  ...        0 min,  0.002 sec
     gradient                   ...        0 min,  0.003 sec
 * total energy  :   -15.8849542 Eh     change       -0.2701697E-09 Eh
   gradient norm :     0.0181468 Eh/α   predicted     0.0000000E+00 (-100.00%)
   displ. norm   :     0.0764286 α      lambda       -0.1285815E-02
   maximum displ.:     0.0761485 α      in ANC's #16, #24, #5, ...

........................................................................
.............................. CYCLE    2 ..............................
........................................................................

 iter      E             dE          RMSdq      gap      omega  full diag
   1    -16.1997497 -0.161997E+02  0.114E-01    4.92       0.0  T
   2    -16.1997502 -0.489500E-06  0.676E-02    4.92       1.0  T
   3    -16.1997503 -0.137123E-06  0.321E-03    4.92       9.0  T
   4    -16.1997504 -0.112266E-07  0.113E-03    4.92      25.5  T
   5    -16.1997504  0.106713E-09  0.213E-04    4.92     135.2  T
   6    -16.1997504 -0.369297E-09  0.313E-05    4.92     922.3  T
     SCC iter.                  ...        0 min,  0.003 sec
     gradient                   ...        0 min,  0.003 sec
 * total energy  :   -15.8856718 Eh     change       -0.7175997E-03 Eh
   gradient norm :     0.0018430 Eh/α   predicted    -0.6466605E-03 (  -9.89%)
   displ. norm   :     0.0146750 α      lambda       -0.1802464E-04
   maximum displ.:     0.0146631 α      in ANC's #16, #5, #4, ...

........................................................................
.............................. CYCLE    3 ..............................
........................................................................

 iter      E             dE          RMSdq      gap      omega  full diag
   1    -16.2028294 -0.162028E+02  0.212E-02    4.93       0.0  T
   2    -16.2028294 -0.947974E-08  0.126E-02    4.93       2.3  T
   3    -16.2028294 -0.503159E-08  0.517E-04    4.93      55.8  T
   4    -16.2028294  0.668976E-11  0.106E-04    4.93     272.7  T
     SCC iter.                  ...        0 min,  0.004 sec
     gradient                   ...        0 min,  0.003 sec
 * total energy  :   -15.8856783 Eh     change       -0.6480258E-05 Eh
   gradient norm :     0.0010527 Eh/α   predicted    -0.9012067E-05 (  39.07%)
   displ. norm   :     0.0050147 α      lambda       -0.3299127E-05
   maximum displ.:     0.0049803 α      in ANC's #16, #5, #24, ...

........................................................................
.............................. CYCLE    4 ..............................
........................................................................

 iter      E             dE          RMSdq      gap      omega  full diag
   1    -16.2017793 -0.162018E+02  0.748E-03    4.93       0.0  T
   2    -16.2017793 -0.176050E-08  0.445E-03    4.93       6.5  T
   3    -16.2017793 -0.579099E-09  0.203E-04    4.93     142.0  T
   4    -16.2017793 -0.282121E-10  0.879E-05    4.93     328.5  T
     SCC iter.                  ...        0 min,  0.002 sec
     gradient                   ...        0 min,  0.003 sec
 * total energy  :   -15.8856807 Eh     change       -0.2455327E-05 Eh
   gradient norm :     0.0000460 Eh/α   predicted    -0.1649406E-05 ( -32.82%)
   displ. norm   :     0.0004106 α      lambda       -0.4582810E-08
   maximum displ.:     0.0003812 α      in ANC's #5, #6, #4, ...

........................................................................
.............................. CYCLE    5 ..............................
........................................................................

 iter      E             dE          RMSdq      gap      omega  full diag
   1    -16.2017788 -0.162018E+02  0.660E-04    4.93       0.0  T
   2    -16.2017788 -0.151807E-10  0.394E-04    4.93      73.3  T
   3    -16.2017788  0.795808E-12  0.251E-05    4.93    1150.3  T
     SCC iter.                  ...        0 min,  0.002 sec
     gradient                   ...        0 min,  0.004 sec
 * total energy  :   -15.8856807 Eh     change        0.4382628E-10 Eh
   gradient norm :     0.0000230 Eh/α   predicted    -0.3020584E-08 (*******%)
   displ. norm   :     0.0002358 α      lambda       -0.9431493E-09
   maximum displ.:     0.0002230 α      in ANC's #5, #6, #4, ...

   *** GEOMETRY OPTIMIZATION CONVERGED AFTER 5 ITERATIONS ***

------------------------------------------------------------------------
 total energy gain   :        -0.0007265 Eh       -0.4559 kcal/mol
 total RMSD          :         0.0248416 a0        0.0131 Å
 total power (kW/mol):        -0.3815037 (step)  -38.9465 (real)
------------------------------------------------------------------------

 ANCopt (total)                0 d,  0 h,  0 min,  0.049 sec
 optimizer setup                ...        0 min,  0.001 sec (  1.132%)
 model hessian                  ...        0 min,  0.002 sec (  4.442%)
 ANC generation                 ...        0 min,  0.001 sec (  1.054%)
 coordinate transformation      ...        0 min,  0.000 sec (  0.125%)
 single point calculation       ...        0 min,  0.040 sec ( 82.429%)
 optimization log               ...        0 min,  0.001 sec (  3.051%)
 hessian update                 ...        0 min,  0.000 sec (  0.316%)
 rational function              ...        0 min,  0.002 sec (  3.163%)

================
 final structure:
================
12
 xtb: 6.7.1 (edcfbbe)
C            1.36065801125363       -0.25846234768318        0.00928988820092
C            0.90428981164273        1.04893629765560       -0.02208544282268
C           -0.45642107533013        1.30742996766146       -0.03139204701425
C           -1.36065815471320        0.25846219118014       -0.00928910506186
C           -0.90428997097332       -1.04893646215807        0.02208652111018
C            0.45642092327439       -1.30743014600292        0.03139282452624
H            2.42223070148047       -0.46029092684137        0.01669582774983
H            1.61003667374093        1.86708003217690       -0.03954710109120
H           -0.81251225154480        2.32740779769548       -0.05623119505371
H           -2.42223083826565        0.46029077849573       -0.01669573819743
H           -1.61003693312573       -1.86708016779869        0.03954507230139
H            0.81251210256070       -2.32740801438108        0.05623049535256

 Bond Distances (Angstroems)
 ---------------------------
C1-C2=1.3851         C1-C6=1.3851         C1-H7=1.0806         C2-C1=1.3851         C2-C3=1.3851         C2-H8=1.0806         
C3-C2=1.3851         C3-C4=1.3851         C3-H9=1.0806         C4-C3=1.3851         C4-C5=1.3851         C4-H10=1.0806        
C5-C4=1.3851         C5-C6=1.3851         C5-H11=1.0806        C6-C1=1.3851         C6-C5=1.3851         C6-H12=1.0806        
H7-C1=1.0806         H8-C2=1.0806         H9-C3=1.0806         H10-C4=1.0806        H11-C5=1.0806        H12-C6=1.0806        
 C  H  Rav=1.0806 sigma=0.0000  Rmin=1.0806  Rmax=1.0806     6
 C  C  Rav=1.3851 sigma=0.0000  Rmin=1.3851  Rmax=1.3851     6

 selected bond angles (degree)
 --------------------
C6-C1-C2=120.01                H7-C1-C2=120.01                H7-C1-C6=119.99                C3-C2-C1=120.00                
H8-C2-C1=119.99                H8-C2-C3=120.01                C4-C3-C2=119.99                H9-C3-C2=120.00                
H9-C3-C4=120.00                C5-C4-C3=120.01                H10-C4-C3=119.99               H10-C4-C5=120.01               
C6-C5-C4=120.00                H11-C5-C4=119.99               H11-C5-C6=120.01               C5-C6-C1=119.99                
H12-C6-C1=120.00               H12-C6-C5=120.00               

 selected dihedral angles (degree)
 ---------------------------------
C3-C2-C1-C6=  0.00            C3-C2-C1-H7=180.01            H8-C2-C1-C6=180.01            H8-C2-C1-H7=  0.02            
C4-C3-C2-C1=  0.00            C4-C3-C2-H8=179.99            H9-C3-C2-C1=180.02            H9-C3-C2-H8=  0.00            
C5-C4-C3-C2=  0.00            C5-C4-C3-H9=179.98            H10-C4-C3-C2=180.01           H10-C4-C3-H9=  0.00           
C6-C5-C4-C3=  0.00            C6-C5-C4-H10=179.99           H11-C5-C4-C3=179.99           H11-C5-C4-H10=359.98          
C5-C6-C1-C2=  0.00            C5-C6-C1-H7=179.99            H12-C6-C1-C2=180.02           H12-C6-C1-H7=  0.00           
C1-C6-C5-C4=  0.00            C1-C6-C5-H11=180.01           H12-C6-C5-C4=179.98           H12-C6-C5-H11=  0.00          
           -------------------------------------------------
          |                Final Singlepoint                |
           -------------------------------------------------

          ...................................................
          :                      SETUP                      :
          :.................................................:
          :  # basis functions                  30          :
          :  # atomic orbitals                  30          :
          :  # shells                           18          :
          :  # electrons                        30          :
          :  max. iterations                   250          :
          :  Hamiltonian                  GFN2-xTB          :
          :  restarted?                      false          :
          :  GBSA solvation                   true          :
          :  PC potential                    false          :
          :  electronic temp.          300.0000000     K    :
          :  accuracy                    1.0000000          :
          :  -> integral cutoff          0.2500000E+02      :
          :  -> integral neglect         0.1000000E-07      :
          :  -> SCF convergence          0.1000000E-05 Eh   :
          :  -> wf. convergence          0.1000000E-03 e    :
          :  Broyden damping             0.4000000          :
          :  net charge                          0          :
          :  unpaired electrons                  0          :
          ...................................................

 iter      E             dE          RMSdq      gap      omega  full diag
   1    -16.2017788 -0.162018E+02  0.686E-06    4.93       0.0  T
   2    -16.2017788 -0.852651E-13  0.366E-06    4.93    7889.7  T
   3    -16.2017788 -0.603961E-13  0.211E-06    4.93   13667.0  T

   *** convergence criteria satisfied after 3 iterations ***

         #    Occupation            Energy/Eh            Energy/eV
      -------------------------------------------------------------
         1        2.0000           -0.6408661             -17.4389
       ...           ...                  ...                  ...
         9        2.0000           -0.4753447             -12.9348
        10        2.0000           -0.4753280             -12.9343
        11        2.0000           -0.4739538             -12.8969
        12        2.0000           -0.4204437             -11.4409
        13        2.0000           -0.4204339             -11.4406
        14        2.0000           -0.4018018             -10.9336
        15        2.0000           -0.4017896             -10.9333 (HOMO)
        16                         -0.2206602              -6.0045 (LUMO)
        17                         -0.2206535              -6.0043
        18                         -0.0895661              -2.4372
        19                          0.1189806               3.2376
        20                          0.1380304               3.7560
       ...                                ...                  ...
        30                          0.6734949              18.3267
      -------------------------------------------------------------
                  HL-Gap            0.1811294 Eh            4.9288 eV
             Fermi-level           -0.3112249 Eh           -8.4689 eV

 SCC (total)                   0 d,  0 h,  0 min,  0.019 sec
 SCC setup                      ...        0 min,  0.001 sec (  5.875%)
 Dispersion                     ...        0 min,  0.000 sec (  0.753%)
 classical contributions        ...        0 min,  0.000 sec (  0.446%)
 integral evaluation            ...        0 min,  0.003 sec ( 14.854%)
 iterations                     ...        0 min,  0.010 sec ( 52.537%)
 molecular gradient             ...        0 min,  0.004 sec ( 23.248%)
 printout                       ...        0 min,  0.000 sec (  2.055%)

         :::::::::::::::::::::::::::::::::::::::::::::::::::::
         ::                     SUMMARY                     ::
         :::::::::::::::::::::::::::::::::::::::::::::::::::::
         :: total energy             -15.885680741749 Eh    ::
         :: total w/o Gsasa/hb       -15.879694367185 Eh    ::
         :: gradient norm              0.000043187765 Eh/a0 ::
         :: HOMO-LUMO gap              4.928782524507 eV    ::
         ::.................................................::
         :: SCC energy               -16.201771961499 Eh    ::
         :: -> isotropic ES            0.000971045502 Eh    ::
         :: -> anisotropic ES          0.002540158643 Eh    ::
         :: -> anisotropic XC          0.012419937908 Eh    ::
         :: -> dispersion             -0.008003633663 Eh    ::
         :: -> Gsolv                  -0.006057157932 Eh    ::
         ::    -> Gelec               -0.000070783368 Eh    ::
         ::    -> Gsasa               -0.011055370251 Eh    ::
         ::    -> Ghb                 -0.000129659065 Eh    ::
         ::    -> Gshift               0.005198654751 Eh    ::
         :: repulsion energy           0.316091219750 Eh    ::
         :: add. restraining           0.000000000000 Eh    ::
         :: total charge              -0.000000000000 e     ::
         :::::::::::::::::::::::::::::::::::::::::::::::::::::

           -------------------------------------------------
          |                Property Printout                |
           -------------------------------------------------

    * Orbital Energies and Occupations

         #    Occupation            Energy/Eh            Energy/eV
      -------------------------------------------------------------
         1        2.0000           -0.6408661             -17.4389
       ...           ...                  ...                  ...
         3        2.0000           -0.6106824             -16.6175
         4        2.0000           -0.5681589             -15.4604
         5        2.0000           -0.5681534             -15.4602
         6        2.0000           -0.5300849             -14.4243
         7        2.0000           -0.4938986             -13.4397
         8        2.0000           -0.4887465             -13.2995
         9        2.0000           -0.4753447             -12.9348
        10        2.0000           -0.4753280             -12.9343
        11        2.0000           -0.4739538             -12.8969
        12        2.0000           -0.4204437             -11.4409
        13        2.0000           -0.4204339             -11.4406
        14        2.0000           -0.4018018             -10.9336
        15        2.0000           -0.4017896             -10.9333 (HOMO)
        16                         -0.2206602              -6.0045 (LUMO)
        17                         -0.2206535              -6.0043
        18                         -0.0895661              -2.4372
        19                          0.1189806               3.2376
        20                          0.1380304               3.7560
        21                          0.1743135               4.7433
        22                          0.1743487               4.7443
        23                          0.2027702               5.5177
        24                          0.2028141               5.5189
        25                          0.4132451              11.2450
        26                          0.4133594              11.2481
       ...                                ...                  ...
        30                          0.6734949              18.3267
      -------------------------------------------------------------
                  HL-Gap            0.1811294 Eh            4.9288 eV
             Fermi-level           -0.3112249 Eh           -8.4689 eV

     #   Z          covCN         q      C6AA      α(0)
     1   6 C        2.920    -0.031    28.777     8.797
     2   6 C        2.920    -0.031    28.776     8.797
     3   6 C        2.920    -0.031    28.776     8.797
     4   6 C        2.920    -0.031    28.777     8.797
     5   6 C        2.920    -0.031    28.776     8.797
     6   6 C        2.920    -0.031    28.776     8.797
     7   1 H        0.926     0.031     2.570     2.507
     8   1 H        0.926     0.031     2.570     2.507
     9   1 H        0.926     0.031     2.570     2.507
    10   1 H        0.926     0.031     2.570     2.507
    11   1 H        0.926     0.031     2.570     2.507
    12   1 H        0.926     0.031     2.570     2.507

 Mol. C6AA /au·bohr⁶  :       1746.888071
 Mol. C8AA /au·bohr⁸  :      42643.044706
 Mol. α(0) /au        :         67.823837


Wiberg/Mayer (AO) data.
largest (>0.10) Wiberg bond orders for each atom

 ---------------------------------------------------------------------------
     #   Z sym  total        # sym  WBO       # sym  WBO       # sym  WBO
 ---------------------------------------------------------------------------
     1   6 C    3.993 --     6 C    1.441     2 C    1.441     7 H    0.971
                             4 C    0.114
     2   6 C    3.993 --     3 C    1.441     1 C    1.441     8 H    0.971
                             5 C    0.114
     3   6 C    3.993 --     2 C    1.441     4 C    1.441     9 H    0.971
                             6 C    0.114
     4   6 C    3.993 --     3 C    1.441     5 C    1.441    10 H    0.971
                             1 C    0.114
     5   6 C    3.993 --     6 C    1.441     4 C    1.441    11 H    0.971
                             2 C    0.114
     6   6 C    3.993 --     5 C    1.441     1 C    1.441    12 H    0.971
                             3 C    0.114
     7   1 H    0.999 --     1 C    0.971
     8   1 H    0.999 --     2 C    0.971
     9   1 H    0.999 --     3 C    0.971
    10   1 H    0.999 --     4 C    0.971
    11   1 H    0.999 --     5 C    0.971
    12   1 H    0.999 --     6 C    0.971
 ---------------------------------------------------------------------------

Topologies differ in total number of bonds
Writing topology from bond orders to xtbtopo.mol

molecular dipole:
                 x           y           z       tot (Debye)
 q only:        0.000      -0.000      -0.000
   full:        0.000      -0.000      -0.000       0.000
molecular quadrupole (traceless):
                xx          xy          yy          xz          yz          zz
 q only:        0.694      -0.000       0.693       0.005      -0.049      -1.386
  q+dip:        2.712      -0.001       2.709       0.020      -0.190      -5.421
   full:        1.375      -0.000       1.373       0.010      -0.097      -2.747

           -------------------------------------------------
          |                Geometry Summary                 |
           -------------------------------------------------

      molecular mass/u    :       78.1120599
   center of mass at/Å    :       -0.0000001      -0.0000001       0.0000004
  moments of inertia/u·Å² :        0.8750492E+02   0.8751782E+02   0.1750227E+03
rotational constants/cm⁻¹ :        0.1926478E+00   0.1926194E+00   0.9631681E-01

 * 12 selected distances

     #   Z          #   Z                                           value/Å
     1   6 C        2   6 C                                       1.3851166
     2   6 C        3   6 C                                       1.3850776
     3   6 C        4   6 C                                       1.3850874
     4   6 C        5   6 C                                       1.3851166 (max)
     1   6 C        6   6 C                                       1.3850874
     5   6 C        6   6 C                                       1.3850776
     1   6 C        7   1 H                                       1.0806139
     2   6 C        8   1 H                                       1.0806215
     3   6 C        9   1 H                                       1.0806354
     4   6 C       10   1 H                                       1.0806139 (min)
     5   6 C       11   1 H                                       1.0806215
     6   6 C       12   1 H                                       1.0806354

 * 2 distinct bonds (by element types)

   Z      Z             #   av. dist./Å        max./Å        min./Å
   1 H    6 C           6     1.0806236     1.0806354     1.0806139
   6 C    6 C           6     1.3850939     1.3851166     1.3850776


optimized geometry written to: xtbopt.xyz


           -------------------------------------------------
          | TOTAL ENERGY              -15.885680741749 Eh   |
          | GRADIENT NORM               0.000043187765 Eh/α |
          | HOMO-LUMO GAP               4.928782524507 eV   |
           -------------------------------------------------

------------------------------------------------------------------------
 * finished run on 2026/09/27 at 14:01:44.471     
------------------------------------------------------------------------
 total:
 * wall-time:     0 d,  0 h,  0 min,  0.153 sec
 *  cpu-time:     0 d,  0 h,  0 min,  0.000 sec
 * ratio c/w:     0.000 speedup
 SCF:
 * wall-time:     0 d,  0 h,  0 min,  0.025 sec
 *  cpu-time:     0 d,  0 h,  0 min,  0.000 sec
 * ratio c/w:     0.000 speedup
 ANC optimizer:
 * wall-time:     0 d,  0 h,  0 min,  0.072 sec
 *  cpu-time:     0 d,  0 h,  0 min,  0.000 sec
 * ratio c/w:     0.000 speedup

