16

C     -2.666073   -0.026135   -0.277683
O     -1.652764    0.893892    0.107170
C     -0.374361    0.411806    0.174072
C      0.585400    1.353058    0.556390
C      1.930339    0.995259    0.664841
C      2.324374   -0.311838    0.390238
C      1.373282   -1.256592    0.008315
C      0.025913   -0.896951   -0.100027
H     -3.619974    0.510072   -0.282626
H     -2.492014   -0.404654   -1.290367
H     -2.749293   -0.846369    0.443005
H      0.280921    2.374319    0.771446
H      2.666437    1.736768    0.963060
H      3.370511   -0.594217    0.473558
H      1.679968   -2.277177   -0.206241
H     -0.682667   -1.661240   -0.399967
