16
 energy: -23.122435994382 gnorm: 0.000084155910 xtb: 6.7.1 (edcfbbe)
C           -2.66569488604056       -0.03111265350404       -0.27918796120976
O           -1.64723772511593        0.86809745206106        0.10248504925066
C           -0.36387219245327        0.41010146553152        0.17664544646051
C            0.59514586709072        1.35062444767006        0.55840270877461
C            1.92264818717969        0.99066470156598        0.66251239612189
C            2.31910444472105       -0.31013422562523        0.38911113858192
C            1.37144844966742       -1.24274037898963        0.01123330389518
C            0.03436800236660       -0.89383317101328       -0.09721355594610
H           -3.58591320998086        0.55057068027473       -0.27110001277676
H           -2.49396917518272       -0.42580539175079       -1.28540992413080
H           -2.75331684083134       -0.85998922695910        0.43010750609396
H            0.26997401769101        2.35809006969496        0.76704937425757
H            2.65331116638604        1.72920279991575        0.95813543622248
H            3.35813160967981       -0.59129389008939        0.47070089278774
H            1.66817278550095       -2.25906959550332       -0.20431277376959
H           -0.68230150067861       -1.64337208327929       -0.39397502461349
