      -----------------------------------------------------------      
     |                   =====================                   |     
     |                           x T B                           |     
     |                   =====================                   |     
     |                         S. Grimme                         |     
     |          Mulliken Center for Theoretical Chemistry        |     
     |                    University of Bonn                     |     
      -----------------------------------------------------------      

   * xtb version 6.7.1 (edcfbbe) compiled by 'VssAdministrator@runnervm171ch' on 2026-06-10

   xtb is free software: you can redistribute it and/or modify it under
   the terms of the GNU Lesser General Public License as published by
   the Free Software Foundation, either version 3 of the License, or
   (at your option) any later version.
   
   xtb is distributed in the hope that it will be useful,
   but WITHOUT ANY WARRANTY; without even the implied warranty of
   MERCHANTABILITY or FITNESS FOR A PARTICULAR PURPOSE.  See the
   GNU Lesser General Public License for more details.
   
   Cite this work as:
   * C. Bannwarth, E. Caldeweyher, S. Ehlert, A. Hansen, P. Pracht,
     J. Seibert, S. Spicher, S. Grimme, WIREs Comput. Mol. Sci., 2020, 11,
     e01493. DOI: 10.1002/wcms.1493
   
   for GFN2-xTB:
   * C. Bannwarth, S. Ehlert and S. Grimme., J. Chem. Theory Comput., 2019,
     15, 1652-1671. DOI: 10.1021/acs.jctc.8b01176
   for GFN1-xTB:
   * S. Grimme, C. Bannwarth, P. Shushkov, J. Chem. Theory Comput., 2017,
     13, 1989-2009. DOI: 10.1021/acs.jctc.7b00118
   for GFN0-xTB:
   * P. Pracht, E. Caldeweyher, S. Ehlert, S. Grimme, ChemRxiv, 2019, preprint.
     DOI: 10.26434/chemrxiv.8326202.v1
   for GFN-FF:
   * S. Spicher and S. Grimme, Angew. Chem. Int. Ed., 2020, 59, 15665-15673.
     DOI: 10.1002/anie.202004239
   
   for ALPB and GBSA implicit solvation:
   * S. Ehlert, M. Stahn, S. Spicher, S. Grimme, J. Chem. Theory Comput.,
     2021, 17, 4250-4261. DOI: 10.1021/acs.jctc.1c00471
   
   for ddCOSMO and CPCM-X implicit solvation:
   * M. Stahn, S. Ehlert, S. Grimme, J. Phys. Chem. A,
     2023, XX, XXXX-XXXX. DOI: 10.1021/acs.jpca.3c04382
   
   for DFT-D4:
   * E. Caldeweyher, C. Bannwarth and S. Grimme, J. Chem. Phys., 2017,
     147, 034112. DOI: 10.1063/1.4993215
   * E. Caldeweyher, S. Ehlert, A. Hansen, H. Neugebauer, S. Spicher,
     C. Bannwarth and S. Grimme, J. Chem. Phys., 2019, 150, 154122.
     DOI: 10.1063/1.5090222
   * E. Caldeweyher, J.-M. Mewes, S. Ehlert and S. Grimme, Phys. Chem. Chem. Phys.
     2020, 22, 8499-8512. DOI: 10.1039/D0CP00502A
   
   for sTDA-xTB:
   * S. Grimme and C. Bannwarth, J. Chem. Phys., 2016, 145, 054103.
     DOI: 10.1063/1.4959605
   
   in the mass-spec context:
   * V. Asgeirsson, C. Bauer and S. Grimme, Chem. Sci., 2017, 8, 4879.
     DOI: 10.1039/c7sc00601b
   * J. Koopman and S. Grimme, ACS Omega 2019, 4, 12, 15120-15133.
     DOI: 10.1021/acsomega.9b02011
   
   for metadynamics refer to:
   * S. Grimme, J. Chem. Theory Comput., 2019, 155, 2847-2862
     DOI: 10.1021/acs.jctc.9b00143
   
   for SPH calculations refer to:
   * S. Spicher and S. Grimme, J. Chem. Theory Comput., 2021, 17, 1701-1714
     DOI: 10.1021/acs.jctc.0c01306
   
   for ONIOM refer to:
   * C. Plett, A. Katbashev, S. Ehlert, S. Grimme, M. Bursch,
     Phys. Chem. Chem. Phys., 2023, 25, 17860-17868. DOI: 10.1039/D3CP02178E
   
   for DIPRO refer to:
   * J. Kohn, N. Gildemeister, S. Grimme, D. Fazzi, A. Hansen,
     J. Chem. Phys., 2023, just accepted.
   
   for PTB refer to:
   * S. Grimme, M. Mueller, A. Hansen, J. Chem. Phys., 2023, 158, 124111.
     DOI: 10.1063/5.0137838
   
   with help from (in alphabetical order)
   P. Atkinson, C. Bannwarth, F. Bohle, G. Brandenburg, E. Caldeweyher
   M. Checinski, S. Dohm, S. Ehlert, S. Ehrlich, I. Gerasimov, C. Hölzer
   A. Katbashev, J. Kohn, J. Koopman, C. Lavigne, S. Lehtola, F. März, M. Müller,
   F. Musil, H. Neugebauer, J. Pisarek, C. Plett, P. Pracht, F. Pultar,
   J. Seibert, P. Shushkov, S. Spicher, M. Stahn, M. Steiner, T. Strunk,
   J. Stückrath, T. Rose, and J. Unsleber
   
 * started run on 2026/09/27 at 14:01:45.366     
   ID    Z sym.   atoms
    1    6 C      1-3, 5, 6
    2    7 N      4
    3    1 H      7-11

           -------------------------------------------------
          |                Calculation Setup                |
           -------------------------------------------------

          program call               : xtb input.xyz --gfn 2 --chrg -1 --uhf 1 --scc --json --parallel 1 --norestart
          coordinate file            : input.xyz
          omp threads                :                     1


           -------------------------------------------------
          |                 G F N 2 - x T B                 |
           -------------------------------------------------

        Reference                      10.1021/acs.jctc.8b01176
      * Hamiltonian:
        H0-scaling (s, p, d)           1.850000    2.230000    2.230000
        zeta-weighting                 0.500000
      * Dispersion:
        s8                             2.700000
        a1                             0.520000
        a2                             5.000000
        s9                             5.000000
      * Repulsion:
        kExp                           1.500000    1.000000
        rExp                           1.000000
      * Coulomb:
        alpha                          2.000000
        third order                    shell-resolved
        anisotropic                    true
        a3                             3.000000
        a5                             4.000000
        cn-shift                       1.200000
        cn-exp                         4.000000
        max-rad                        5.000000


          ...................................................
          :                      SETUP                      :
          :.................................................:
          :  # basis functions                  29          :
          :  # atomic orbitals                  29          :
          :  # shells                           17          :
          :  # electrons                        31          :
          :  max. iterations                   250          :
          :  Hamiltonian                  GFN2-xTB          :
          :  restarted?                      false          :
          :  GBSA solvation                  false          :
          :  PC potential                    false          :
          :  electronic temp.          300.0000000     K    :
          :  accuracy                    1.0000000          :
          :  -> integral cutoff          0.2500000E+02      :
          :  -> integral neglect         0.1000000E-07      :
          :  -> SCF convergence          0.1000000E-05 Eh   :
          :  -> wf. convergence          0.1000000E-03 e    :
          :  Broyden damping             0.4000000          :
          :  net charge                         -1          :
          :  unpaired electrons                  1          :
          ...................................................

 iter      E             dE          RMSdq      gap      omega  full diag
   1    -16.5443093 -0.165443E+02  0.388E+00    0.16       0.0  T
   2    -16.5283048  0.160046E-01  0.270E+00    0.09       1.0  T
   3    -16.5408361 -0.125313E-01  0.255E+00    0.50       1.0  T
   4    -16.5522417 -0.114056E-01  0.149E+00    0.29       1.0  T
   5    -16.5553388 -0.309708E-02  0.106E+00    0.21       1.0  T
   6    -16.5593112 -0.397241E-02  0.439E-01    0.11       1.0  T
   7    -16.5596096 -0.298383E-03  0.258E-01    0.08       1.0  T
   8    -16.5598527 -0.243157E-03  0.140E-01    0.08       1.0  T
   9    -16.5599420 -0.892515E-04  0.396E-02    0.08       1.0  T
  10    -16.5599419  0.123493E-06  0.391E-02    0.07       1.0  T
  11    -16.5599481 -0.624502E-05  0.332E-03    0.07       9.1  T
  12    -16.5599481 -0.453418E-07  0.439E-04    0.07      68.6  T
  13    -16.5599481 -0.619213E-09  0.118E-04    0.07     255.2  T

   *** convergence criteria satisfied after 13 iterations ***

         #    Occupation            Energy/Eh            Energy/eV
      -------------------------------------------------------------
         1        2.0000           -0.4158213             -11.3151
       ...           ...                  ...                  ...
        10        2.0000           -0.2573489              -7.0028
        11        2.0000           -0.2416996              -6.5770
        12        2.0000           -0.2155416              -5.8652
        13        2.0000           -0.1876608              -5.1065
        14        2.0000           -0.1768460              -4.8122
        15        2.0000           -0.1299982              -3.5374
        16        0.8078           -0.0014173              -0.0386 (HOMO)
        17        0.1922            0.0013111               0.0357 (LUMO)
        18                          0.1309927               3.5645
        19                          0.3263487               8.8804
        20                          0.3404473               9.2640
        21                          0.3702845              10.0760
       ...                                ...                  ...
        29                          0.8546964              23.2575
      -------------------------------------------------------------
                  HL-Gap            0.0027284 Eh            0.0742 eV
             Fermi-level           -0.0328804 Eh           -0.8947 eV

 SCC (total)                   0 d,  0 h,  0 min,  0.020 sec
 SCC setup                      ...        0 min,  0.000 sec (  2.317%)
 Dispersion                     ...        0 min,  0.000 sec (  0.707%)
 classical contributions        ...        0 min,  0.000 sec (  0.483%)
 integral evaluation            ...        0 min,  0.001 sec (  7.130%)
 iterations                     ...        0 min,  0.014 sec ( 66.959%)
 molecular gradient             ...        0 min,  0.004 sec ( 18.756%)
 printout                       ...        0 min,  0.001 sec (  3.477%)

         :::::::::::::::::::::::::::::::::::::::::::::::::::::
         ::                     SUMMARY                     ::
         :::::::::::::::::::::::::::::::::::::::::::::::::::::
         :: total energy             -16.275345816472 Eh    ::
         :: gradient norm              0.097570977000 Eh/a0 ::
         :: HOMO-LUMO gap              0.074242601136 eV    ::
         ::.................................................::
         :: SCC energy               -16.559943736146 Eh    ::
         :: -> isotropic ES            0.126953978485 Eh    ::
         :: -> anisotropic ES          0.014446695180 Eh    ::
         :: -> anisotropic XC          0.011363893744 Eh    ::
         :: -> dispersion             -0.008900867326 Eh    ::
         :: repulsion energy           0.284597919674 Eh    ::
         :: add. restraining           0.000000000000 Eh    ::
         :: total charge              -1.000000000000 e     ::
         :::::::::::::::::::::::::::::::::::::::::::::::::::::

           -------------------------------------------------
          |                Property Printout                |
           -------------------------------------------------

    * Orbital Energies and Occupations

         #    Occupation            Energy/Eh            Energy/eV
      -------------------------------------------------------------
         1        2.0000           -0.4158213             -11.3151
       ...           ...                  ...                  ...
         4        2.0000           -0.3572825              -9.7222
         5        2.0000           -0.3495256              -9.5111
         6        2.0000           -0.3152439              -8.5782
         7        2.0000           -0.2903075              -7.8997
         8        2.0000           -0.2706354              -7.3644
         9        2.0000           -0.2641467              -7.1878
        10        2.0000           -0.2573489              -7.0028
        11        2.0000           -0.2416996              -6.5770
        12        2.0000           -0.2155416              -5.8652
        13        2.0000           -0.1876608              -5.1065
        14        2.0000           -0.1768460              -4.8122
        15        2.0000           -0.1299982              -3.5374
        16        0.8078           -0.0014173              -0.0386 (HOMO)
        17        0.1922            0.0013111               0.0357 (LUMO)
        18                          0.1309927               3.5645
        19                          0.3263487               8.8804
        20                          0.3404473               9.2640
        21                          0.3702845              10.0760
        22                          0.3999005              10.8818
        23                          0.4020808              10.9412
        24                          0.5376817              14.6311
        25                          0.6182136              16.8224
        26                          0.6562087              17.8563
        27                          0.6684037              18.1882
       ...                                ...                  ...
        29                          0.8546964              23.2575
      -------------------------------------------------------------
                  HL-Gap            0.0027284 Eh            0.0742 eV
             Fermi-level           -0.0328804 Eh           -0.8947 eV

     #   Z          covCN         q      C6AA      α(0)
     1   6 C        2.929    -0.099    30.502     9.057
     2   6 C        2.914    -0.089    30.230     9.016
     3   6 C        2.913     0.018    27.604     8.615
     4   7 N        1.835    -0.391    31.088     8.263
     5   6 C        2.913     0.018    27.605     8.615
     6   6 C        2.914    -0.089    30.229     9.016
     7   1 H        0.926    -0.080     4.918     3.468
     8   1 H        0.926    -0.071     4.656     3.374
     9   1 H        0.925    -0.073     4.691     3.387
    10   1 H        0.925    -0.073     4.691     3.387
    11   1 H        0.926    -0.071     4.655     3.374

 Mol. C6AA /au·bohr⁶  :       1886.778689
 Mol. C8AA /au·bohr⁸  :      43756.136224
 Mol. α(0) /au        :         69.572840


Wiberg/Mayer (AO) data.
largest (>0.10) Wiberg bond orders for each atom

 ---------------------------------------------------------------------------
     #   Z sym  total        # sym  WBO       # sym  WBO       # sym  WBO
 ---------------------------------------------------------------------------
     1   6 C    3.749 --     6 C    1.303     2 C    1.303     7 H    0.967
     2   6 C    3.861 --     3 C    1.454     1 C    1.303     8 H    0.968
     3   6 C    3.844 --     2 C    1.454     4 N    1.298     9 H    0.961
     4   7 N    2.818 --     3 C    1.298     5 C    1.298
     5   6 C    3.844 --     6 C    1.454     4 N    1.298    10 H    0.961
     6   6 C    3.861 --     5 C    1.454     1 C    1.303    11 H    0.968
     7   1 H    0.994 --     1 C    0.967
     8   1 H    0.995 --     2 C    0.968
     9   1 H    0.995 --     3 C    0.961
    10   1 H    0.995 --     5 C    0.961
    11   1 H    0.995 --     6 C    0.968
 ---------------------------------------------------------------------------

Topologies differ in total number of bonds
Writing topology from bond orders to xtbtopo.mol

molecular dipole:
                 x           y           z       tot (Debye)
 q only:       -0.012       0.525      -0.021
   full:       -0.021       0.964      -0.039       2.454
molecular quadrupole (traceless):
                xx          xy          yy          xz          yz          zz
 q only:       -1.625       0.073      -4.570       0.178       0.435       6.196
  q+dip:        1.307       0.143      -5.104       0.052       0.356       3.798
   full:        1.051       0.164      -6.216       0.089       0.456       5.165


           -------------------------------------------------
          | TOTAL ENERGY              -16.275345816472 Eh   |
          | GRADIENT NORM               0.097570977000 Eh/α |
          | HOMO-LUMO GAP               0.074242601136 eV   |
           -------------------------------------------------

------------------------------------------------------------------------
 * finished run on 2026/09/27 at 14:01:45.414     
------------------------------------------------------------------------
 total:
 * wall-time:     0 d,  0 h,  0 min,  0.047 sec
 *  cpu-time:     0 d,  0 h,  0 min,  0.000 sec
 * ratio c/w:     0.000 speedup
 SCF:
 * wall-time:     0 d,  0 h,  0 min,  0.021 sec
 *  cpu-time:     0 d,  0 h,  0 min,  0.000 sec
 * ratio c/w:     0.000 speedup

