      -----------------------------------------------------------      
     |                   =====================                   |     
     |                           x T B                           |     
     |                   =====================                   |     
     |                         S. Grimme                         |     
     |          Mulliken Center for Theoretical Chemistry        |     
     |                    University of Bonn                     |     
      -----------------------------------------------------------      

   * xtb version 6.7.1 (edcfbbe) compiled by 'VssAdministrator@runnervm171ch' on 2026-06-10

   xtb is free software: you can redistribute it and/or modify it under
   the terms of the GNU Lesser General Public License as published by
   the Free Software Foundation, either version 3 of the License, or
   (at your option) any later version.
   
   xtb is distributed in the hope that it will be useful,
   but WITHOUT ANY WARRANTY; without even the implied warranty of
   MERCHANTABILITY or FITNESS FOR A PARTICULAR PURPOSE.  See the
   GNU Lesser General Public License for more details.
   
   Cite this work as:
   * C. Bannwarth, E. Caldeweyher, S. Ehlert, A. Hansen, P. Pracht,
     J. Seibert, S. Spicher, S. Grimme, WIREs Comput. Mol. Sci., 2020, 11,
     e01493. DOI: 10.1002/wcms.1493
   
   for GFN2-xTB:
   * C. Bannwarth, S. Ehlert and S. Grimme., J. Chem. Theory Comput., 2019,
     15, 1652-1671. DOI: 10.1021/acs.jctc.8b01176
   for GFN1-xTB:
   * S. Grimme, C. Bannwarth, P. Shushkov, J. Chem. Theory Comput., 2017,
     13, 1989-2009. DOI: 10.1021/acs.jctc.7b00118
   for GFN0-xTB:
   * P. Pracht, E. Caldeweyher, S. Ehlert, S. Grimme, ChemRxiv, 2019, preprint.
     DOI: 10.26434/chemrxiv.8326202.v1
   for GFN-FF:
   * S. Spicher and S. Grimme, Angew. Chem. Int. Ed., 2020, 59, 15665-15673.
     DOI: 10.1002/anie.202004239
   
   for ALPB and GBSA implicit solvation:
   * S. Ehlert, M. Stahn, S. Spicher, S. Grimme, J. Chem. Theory Comput.,
     2021, 17, 4250-4261. DOI: 10.1021/acs.jctc.1c00471
   
   for ddCOSMO and CPCM-X implicit solvation:
   * M. Stahn, S. Ehlert, S. Grimme, J. Phys. Chem. A,
     2023, XX, XXXX-XXXX. DOI: 10.1021/acs.jpca.3c04382
   
   for DFT-D4:
   * E. Caldeweyher, C. Bannwarth and S. Grimme, J. Chem. Phys., 2017,
     147, 034112. DOI: 10.1063/1.4993215
   * E. Caldeweyher, S. Ehlert, A. Hansen, H. Neugebauer, S. Spicher,
     C. Bannwarth and S. Grimme, J. Chem. Phys., 2019, 150, 154122.
     DOI: 10.1063/1.5090222
   * E. Caldeweyher, J.-M. Mewes, S. Ehlert and S. Grimme, Phys. Chem. Chem. Phys.
     2020, 22, 8499-8512. DOI: 10.1039/D0CP00502A
   
   for sTDA-xTB:
   * S. Grimme and C. Bannwarth, J. Chem. Phys., 2016, 145, 054103.
     DOI: 10.1063/1.4959605
   
   in the mass-spec context:
   * V. Asgeirsson, C. Bauer and S. Grimme, Chem. Sci., 2017, 8, 4879.
     DOI: 10.1039/c7sc00601b
   * J. Koopman and S. Grimme, ACS Omega 2019, 4, 12, 15120-15133.
     DOI: 10.1021/acsomega.9b02011
   
   for metadynamics refer to:
   * S. Grimme, J. Chem. Theory Comput., 2019, 155, 2847-2862
     DOI: 10.1021/acs.jctc.9b00143
   
   for SPH calculations refer to:
   * S. Spicher and S. Grimme, J. Chem. Theory Comput., 2021, 17, 1701-1714
     DOI: 10.1021/acs.jctc.0c01306
   
   for ONIOM refer to:
   * C. Plett, A. Katbashev, S. Ehlert, S. Grimme, M. Bursch,
     Phys. Chem. Chem. Phys., 2023, 25, 17860-17868. DOI: 10.1039/D3CP02178E
   
   for DIPRO refer to:
   * J. Kohn, N. Gildemeister, S. Grimme, D. Fazzi, A. Hansen,
     J. Chem. Phys., 2023, just accepted.
   
   for PTB refer to:
   * S. Grimme, M. Mueller, A. Hansen, J. Chem. Phys., 2023, 158, 124111.
     DOI: 10.1063/5.0137838
   
   with help from (in alphabetical order)
   P. Atkinson, C. Bannwarth, F. Bohle, G. Brandenburg, E. Caldeweyher
   M. Checinski, S. Dohm, S. Ehlert, S. Ehrlich, I. Gerasimov, C. Hölzer
   A. Katbashev, J. Kohn, J. Koopman, C. Lavigne, S. Lehtola, F. März, M. Müller,
   F. Musil, H. Neugebauer, J. Pisarek, C. Plett, P. Pracht, F. Pultar,
   J. Seibert, P. Shushkov, S. Spicher, M. Stahn, M. Steiner, T. Strunk,
   J. Stückrath, T. Rose, and J. Unsleber
   
 * started run on 2026/09/27 at 14:01:48.168     
   ID    Z sym.   atoms
    1    6 C      1-4, 6-9
    2    8 O      5
    3    1 H      10-15

           -------------------------------------------------
          |                Calculation Setup                |
           -------------------------------------------------

          program call               : xtb input.xyz --gfn 2 --chrg -1 --uhf 1 --scc --json --parallel 1 --norestart
          coordinate file            : input.xyz
          omp threads                :                     1


           -------------------------------------------------
          |                 G F N 2 - x T B                 |
           -------------------------------------------------

        Reference                      10.1021/acs.jctc.8b01176
      * Hamiltonian:
        H0-scaling (s, p, d)           1.850000    2.230000    2.230000
        zeta-weighting                 0.500000
      * Dispersion:
        s8                             2.700000
        a1                             0.520000
        a2                             5.000000
        s9                             5.000000
      * Repulsion:
        kExp                           1.500000    1.000000
        rExp                           1.000000
      * Coulomb:
        alpha                          2.000000
        third order                    shell-resolved
        anisotropic                    true
        a3                             3.000000
        a5                             4.000000
        cn-shift                       1.200000
        cn-exp                         4.000000
        max-rad                        5.000000


          ...................................................
          :                      SETUP                      :
          :.................................................:
          :  # basis functions                  42          :
          :  # atomic orbitals                  42          :
          :  # shells                           24          :
          :  # electrons                        45          :
          :  max. iterations                   250          :
          :  Hamiltonian                  GFN2-xTB          :
          :  restarted?                      false          :
          :  GBSA solvation                  false          :
          :  PC potential                    false          :
          :  electronic temp.          300.0000000     K    :
          :  accuracy                    1.0000000          :
          :  -> integral cutoff          0.2500000E+02      :
          :  -> integral neglect         0.1000000E-07      :
          :  -> SCF convergence          0.1000000E-05 Eh   :
          :  -> wf. convergence          0.1000000E-03 e    :
          :  Broyden damping             0.4000000          :
          :  net charge                         -1          :
          :  unpaired electrons                  1          :
          ...................................................

 iter      E             dE          RMSdq      gap      omega  full diag
   1    -24.7607419 -0.247607E+02  0.378E+00    0.83       0.0  T
   2    -24.7740577 -0.133158E-01  0.249E+00    0.67       1.0  T
   3    -24.7580441  0.160136E-01  0.154E+00    0.70       1.0  T
   4    -24.7820482 -0.240041E-01  0.604E-01    0.78       1.0  T
   5    -24.7854457 -0.339745E-02  0.137E-01    0.64       1.0  T
   6    -24.7856216 -0.175935E-03  0.494E-02    0.66       1.0  T
   7    -24.7856348 -0.131743E-04  0.277E-02    0.66       1.0  T
   8    -24.7856357 -0.907911E-06  0.116E-02    0.66       2.2  T
   9    -24.7856368 -0.111585E-05  0.568E-03    0.66       4.5  T
  10    -24.7856371 -0.241810E-06  0.115E-03    0.66      22.5  T
  11    -24.7856371 -0.422309E-08  0.658E-04    0.66      39.2  T
  12    -24.7856371 -0.537419E-09  0.216E-04    0.66     119.4  T

   *** convergence criteria satisfied after 12 iterations ***

         #    Occupation            Energy/Eh            Energy/eV
      -------------------------------------------------------------
         1        2.0000           -0.5325989             -14.4928
       ...           ...                  ...                  ...
        17        2.0000           -0.2611942              -7.1075
        18        2.0000           -0.2409892              -6.5577
        19        2.0000           -0.2253616              -6.1324
        20        2.0000           -0.2241738              -6.1001
        21        2.0000           -0.1905747              -5.1858
        22        2.0000           -0.1733757              -4.7178
        23        1.0000           -0.0315945              -0.8597 (HOMO)
        24        0.0000           -0.0074014              -0.2014 (LUMO)
        25                          0.0356340               0.9696
        26                          0.1270930               3.4584
        27                          0.2672340               7.2718
        28                          0.3002631               8.1706
       ...                                ...                  ...
        42                          0.9341471              25.4194
      -------------------------------------------------------------
                  HL-Gap            0.0241930 Eh            0.6583 eV
             Fermi-level           -0.0609915 Eh           -1.6597 eV

 SCC (total)                   0 d,  0 h,  0 min,  0.028 sec
 SCC setup                      ...        0 min,  0.000 sec (  1.135%)
 Dispersion                     ...        0 min,  0.000 sec (  0.553%)
 classical contributions        ...        0 min,  0.000 sec (  0.157%)
 integral evaluation            ...        0 min,  0.003 sec ( 10.322%)
 iterations                     ...        0 min,  0.018 sec ( 63.816%)
 molecular gradient             ...        0 min,  0.006 sec ( 21.887%)
 printout                       ...        0 min,  0.001 sec (  2.018%)

         :::::::::::::::::::::::::::::::::::::::::::::::::::::
         ::                     SUMMARY                     ::
         :::::::::::::::::::::::::::::::::::::::::::::::::::::
         :: total energy             -24.382336549617 Eh    ::
         :: gradient norm              0.102893124241 Eh/a0 ::
         :: HOMO-LUMO gap              0.658326213084 eV    ::
         ::.................................................::
         :: SCC energy               -24.785619955122 Eh    ::
         :: -> isotropic ES            0.113595401278 Eh    ::
         :: -> anisotropic ES          0.015628940219 Eh    ::
         :: -> anisotropic XC          0.006562653574 Eh    ::
         :: -> dispersion             -0.014423349628 Eh    ::
         :: repulsion energy           0.403283405505 Eh    ::
         :: add. restraining           0.000000000000 Eh    ::
         :: total charge              -1.000000000000 e     ::
         :::::::::::::::::::::::::::::::::::::::::::::::::::::

           -------------------------------------------------
          |                Property Printout                |
           -------------------------------------------------

    * Orbital Energies and Occupations

         #    Occupation            Energy/Eh            Energy/eV
      -------------------------------------------------------------
         1        2.0000           -0.5325989             -14.4928
       ...           ...                  ...                  ...
        11        2.0000           -0.3327806              -9.0554
        12        2.0000           -0.3174651              -8.6387
        13        2.0000           -0.2946055              -8.0166
        14        2.0000           -0.2828145              -7.6958
        15        2.0000           -0.2746937              -7.4748
        16        2.0000           -0.2663013              -7.2464
        17        2.0000           -0.2611942              -7.1075
        18        2.0000           -0.2409892              -6.5577
        19        2.0000           -0.2253616              -6.1324
        20        2.0000           -0.2241738              -6.1001
        21        2.0000           -0.1905747              -5.1858
        22        2.0000           -0.1733757              -4.7178
        23        1.0000           -0.0315945              -0.8597 (HOMO)
        24        0.0000           -0.0074014              -0.2014 (LUMO)
        25                          0.0356340               0.9696
        26                          0.1270930               3.4584
        27                          0.2672340               7.2718
        28                          0.3002631               8.1706
        29                          0.3090463               8.4096
        30                          0.3297331               8.9725
        31                          0.3559708               9.6865
        32                          0.3802078              10.3460
        33                          0.3910041              10.6398
        34                          0.4130110              11.2386
       ...                                ...                  ...
        42                          0.9341471              25.4194
      -------------------------------------------------------------
                  HL-Gap            0.0241930 Eh            0.6583 eV
             Fermi-level           -0.0609915 Eh           -1.6597 eV

     #   Z          covCN         q      C6AA      α(0)
     1   6 C        2.920    -0.063    29.557     8.915
     2   6 C        2.926    -0.089    30.227     9.016
     3   6 C        2.907    -0.117    30.977     9.126
     4   6 C        3.119     0.104    25.539     8.277
     5   8 O        1.720    -0.287    18.761     5.848
     6   6 C        3.058     0.009    27.769     8.642
     7   6 C        2.981    -0.114    30.870     9.114
     8   6 C        3.094    -0.053    29.201     8.857
     9   6 C        2.912    -0.106    30.688     9.084
    10   1 H        0.926    -0.047     4.010     3.132
    11   1 H        0.926    -0.051     4.108     3.169
    12   1 H        0.926    -0.043     3.918     3.095
    13   1 H        0.926    -0.049     4.057     3.150
    14   1 H        0.926    -0.044     3.948     3.107
    15   1 H        0.926    -0.051     4.121     3.175

 Mol. C6AA /au·bohr⁶  :       3554.804307
 Mol. C8AA /au·bohr⁸  :      86431.077654
 Mol. α(0) /au        :         95.707272


Wiberg/Mayer (AO) data.
largest (>0.10) Wiberg bond orders for each atom

 ---------------------------------------------------------------------------
     #   Z sym  total        # sym  WBO       # sym  WBO       # sym  WBO
 ---------------------------------------------------------------------------
     1   6 C    3.982 --     2 C    1.439     9 C    1.427    10 H    0.971
     2   6 C    3.941 --     1 C    1.439     3 C    1.302    11 H    0.971
     3   6 C    3.909 --     4 C    1.362     2 C    1.302    12 H    0.969
     4   6 C    3.912 --     3 C    1.362     8 C    1.281     5 O    1.066
     5   8 O    2.308 --     4 C    1.066     6 C    1.031
     6   6 C    3.778 --     7 C    1.484     5 O    1.031    13 H    0.967
     7   6 C    3.947 --     6 C    1.484     8 C    1.280    14 H    0.974
     8   6 C    3.971 --     4 C    1.281     7 C    1.280     9 C    1.214
     9   6 C    3.900 --     1 C    1.427     8 C    1.214    15 H    0.969
    10   1 H    0.998 --     1 C    0.971
    11   1 H    0.997 --     2 C    0.971
    12   1 H    0.998 --     3 C    0.969
    13   1 H    0.997 --     6 C    0.967
    14   1 H    0.998 --     7 C    0.974
    15   1 H    0.997 --     9 C    0.969
 ---------------------------------------------------------------------------

Topologies differ in total number of bonds
Writing topology from bond orders to xtbtopo.mol

molecular dipole:
                 x           y           z       tot (Debye)
 q only:       -0.203       0.282       0.030
   full:       -0.155       0.286       0.027       0.828
molecular quadrupole (traceless):
                xx          xy          yy          xz          yz          zz
 q only:       -9.011       0.432      -0.688       1.372      -0.607       9.698
  q+dip:       -7.010       0.476       1.417       0.930      -0.267       5.593
   full:       -7.514       0.553       0.371       1.083      -0.415       7.143


           -------------------------------------------------
          | TOTAL ENERGY              -24.382336549617 Eh   |
          | GRADIENT NORM               0.102893124241 Eh/α |
          | HOMO-LUMO GAP               0.658326213084 eV   |
           -------------------------------------------------

------------------------------------------------------------------------
 * finished run on 2026/09/27 at 14:01:48.224     
------------------------------------------------------------------------
 total:
 * wall-time:     0 d,  0 h,  0 min,  0.055 sec
 *  cpu-time:     0 d,  0 h,  0 min,  0.000 sec
 * ratio c/w:     0.000 speedup
 SCF:
 * wall-time:     0 d,  0 h,  0 min,  0.029 sec
 *  cpu-time:     0 d,  0 h,  0 min,  0.000 sec
 * ratio c/w:     0.000 speedup

