      -----------------------------------------------------------      
     |                   =====================                   |     
     |                           x T B                           |     
     |                   =====================                   |     
     |                         S. Grimme                         |     
     |          Mulliken Center for Theoretical Chemistry        |     
     |                    University of Bonn                     |     
      -----------------------------------------------------------      

   * xtb version 6.7.1 (edcfbbe) compiled by 'VssAdministrator@runnervm171ch' on 2026-06-10

   xtb is free software: you can redistribute it and/or modify it under
   the terms of the GNU Lesser General Public License as published by
   the Free Software Foundation, either version 3 of the License, or
   (at your option) any later version.
   
   xtb is distributed in the hope that it will be useful,
   but WITHOUT ANY WARRANTY; without even the implied warranty of
   MERCHANTABILITY or FITNESS FOR A PARTICULAR PURPOSE.  See the
   GNU Lesser General Public License for more details.
   
   Cite this work as:
   * C. Bannwarth, E. Caldeweyher, S. Ehlert, A. Hansen, P. Pracht,
     J. Seibert, S. Spicher, S. Grimme, WIREs Comput. Mol. Sci., 2020, 11,
     e01493. DOI: 10.1002/wcms.1493
   
   for GFN2-xTB:
   * C. Bannwarth, S. Ehlert and S. Grimme., J. Chem. Theory Comput., 2019,
     15, 1652-1671. DOI: 10.1021/acs.jctc.8b01176
   for GFN1-xTB:
   * S. Grimme, C. Bannwarth, P. Shushkov, J. Chem. Theory Comput., 2017,
     13, 1989-2009. DOI: 10.1021/acs.jctc.7b00118
   for GFN0-xTB:
   * P. Pracht, E. Caldeweyher, S. Ehlert, S. Grimme, ChemRxiv, 2019, preprint.
     DOI: 10.26434/chemrxiv.8326202.v1
   for GFN-FF:
   * S. Spicher and S. Grimme, Angew. Chem. Int. Ed., 2020, 59, 15665-15673.
     DOI: 10.1002/anie.202004239
   
   for ALPB and GBSA implicit solvation:
   * S. Ehlert, M. Stahn, S. Spicher, S. Grimme, J. Chem. Theory Comput.,
     2021, 17, 4250-4261. DOI: 10.1021/acs.jctc.1c00471
   
   for ddCOSMO and CPCM-X implicit solvation:
   * M. Stahn, S. Ehlert, S. Grimme, J. Phys. Chem. A,
     2023, XX, XXXX-XXXX. DOI: 10.1021/acs.jpca.3c04382
   
   for DFT-D4:
   * E. Caldeweyher, C. Bannwarth and S. Grimme, J. Chem. Phys., 2017,
     147, 034112. DOI: 10.1063/1.4993215
   * E. Caldeweyher, S. Ehlert, A. Hansen, H. Neugebauer, S. Spicher,
     C. Bannwarth and S. Grimme, J. Chem. Phys., 2019, 150, 154122.
     DOI: 10.1063/1.5090222
   * E. Caldeweyher, J.-M. Mewes, S. Ehlert and S. Grimme, Phys. Chem. Chem. Phys.
     2020, 22, 8499-8512. DOI: 10.1039/D0CP00502A
   
   for sTDA-xTB:
   * S. Grimme and C. Bannwarth, J. Chem. Phys., 2016, 145, 054103.
     DOI: 10.1063/1.4959605
   
   in the mass-spec context:
   * V. Asgeirsson, C. Bauer and S. Grimme, Chem. Sci., 2017, 8, 4879.
     DOI: 10.1039/c7sc00601b
   * J. Koopman and S. Grimme, ACS Omega 2019, 4, 12, 15120-15133.
     DOI: 10.1021/acsomega.9b02011
   
   for metadynamics refer to:
   * S. Grimme, J. Chem. Theory Comput., 2019, 155, 2847-2862
     DOI: 10.1021/acs.jctc.9b00143
   
   for SPH calculations refer to:
   * S. Spicher and S. Grimme, J. Chem. Theory Comput., 2021, 17, 1701-1714
     DOI: 10.1021/acs.jctc.0c01306
   
   for ONIOM refer to:
   * C. Plett, A. Katbashev, S. Ehlert, S. Grimme, M. Bursch,
     Phys. Chem. Chem. Phys., 2023, 25, 17860-17868. DOI: 10.1039/D3CP02178E
   
   for DIPRO refer to:
   * J. Kohn, N. Gildemeister, S. Grimme, D. Fazzi, A. Hansen,
     J. Chem. Phys., 2023, just accepted.
   
   for PTB refer to:
   * S. Grimme, M. Mueller, A. Hansen, J. Chem. Phys., 2023, 158, 124111.
     DOI: 10.1063/5.0137838
   
   with help from (in alphabetical order)
   P. Atkinson, C. Bannwarth, F. Bohle, G. Brandenburg, E. Caldeweyher
   M. Checinski, S. Dohm, S. Ehlert, S. Ehrlich, I. Gerasimov, C. Hölzer
   A. Katbashev, J. Kohn, J. Koopman, C. Lavigne, S. Lehtola, F. März, M. Müller,
   F. Musil, H. Neugebauer, J. Pisarek, C. Plett, P. Pracht, F. Pultar,
   J. Seibert, P. Shushkov, S. Spicher, M. Stahn, M. Steiner, T. Strunk,
   J. Stückrath, T. Rose, and J. Unsleber
   
 * started run on 2026/09/27 at 14:01:45.985     
   ID    Z sym.   atoms
    1    6 C      1, 3-8
    2    8 O      2
    3    1 H      9-16

           -------------------------------------------------
          |                Calculation Setup                |
           -------------------------------------------------

          program call               : xtb input.xyz --gfn 2 --chrg -1 --uhf 1 --scc --json --parallel 1 --norestart
          coordinate file            : input.xyz
          omp threads                :                     1


           -------------------------------------------------
          |                 G F N 2 - x T B                 |
           -------------------------------------------------

        Reference                      10.1021/acs.jctc.8b01176
      * Hamiltonian:
        H0-scaling (s, p, d)           1.850000    2.230000    2.230000
        zeta-weighting                 0.500000
      * Dispersion:
        s8                             2.700000
        a1                             0.520000
        a2                             5.000000
        s9                             5.000000
      * Repulsion:
        kExp                           1.500000    1.000000
        rExp                           1.000000
      * Coulomb:
        alpha                          2.000000
        third order                    shell-resolved
        anisotropic                    true
        a3                             3.000000
        a5                             4.000000
        cn-shift                       1.200000
        cn-exp                         4.000000
        max-rad                        5.000000


          ...................................................
          :                      SETUP                      :
          :.................................................:
          :  # basis functions                  40          :
          :  # atomic orbitals                  40          :
          :  # shells                           24          :
          :  # electrons                        43          :
          :  max. iterations                   250          :
          :  Hamiltonian                  GFN2-xTB          :
          :  restarted?                      false          :
          :  GBSA solvation                  false          :
          :  PC potential                    false          :
          :  electronic temp.          300.0000000     K    :
          :  accuracy                    1.0000000          :
          :  -> integral cutoff          0.2500000E+02      :
          :  -> integral neglect         0.1000000E-07      :
          :  -> SCF convergence          0.1000000E-05 Eh   :
          :  -> wf. convergence          0.1000000E-03 e    :
          :  Broyden damping             0.4000000          :
          :  net charge                         -1          :
          :  unpaired electrons                  1          :
          ...................................................

 iter      E             dE          RMSdq      gap      omega  full diag
   1    -23.5070495 -0.235070E+02  0.400E+00    0.40       0.0  T
   2    -23.5229734 -0.159239E-01  0.338E+00    0.28       1.0  T
   3    -23.5581302 -0.351568E-01  0.209E+00    0.42       1.0  T
   4    -23.5800677 -0.219375E-01  0.676E-01    0.04       1.0  T
   5    -23.5781419  0.192579E-02  0.585E-01    0.08       1.0  T
   6    -23.5794459 -0.130398E-02  0.414E-01    0.07       1.0  T
   7    -23.5805865 -0.114066E-02  0.976E-02    0.05       1.0  T
   8    -23.5806305 -0.439686E-04  0.334E-02    0.05       1.0  T
   9    -23.5806350 -0.451980E-05  0.160E-02    0.05       1.6  T
  10    -23.5806370 -0.199244E-05  0.466E-03    0.05       5.4  T
  11    -23.5806370  0.430483E-08  0.428E-03    0.05       5.8  T
  12    -23.5806371 -0.113510E-06  0.889E-04    0.05      28.1  T
  13    -23.5806371  0.334358E-08  0.966E-04    0.05      25.9  T

   *** convergence criteria satisfied after 13 iterations ***

         #    Occupation            Energy/Eh            Energy/eV
      -------------------------------------------------------------
         1        2.0000           -0.5335787             -14.5194
       ...           ...                  ...                  ...
        16        2.0000           -0.2497578              -6.7963
        17        2.0000           -0.2297853              -6.2528
        18        2.0000           -0.2176010              -5.9212
        19        2.0000           -0.2051746              -5.5831
        20        2.0000           -0.1676533              -4.5621
        21        2.0000           -0.1574113              -4.2834
        22        0.7239            0.0124435               0.3386 (HOMO)
        23        0.2761            0.0142752               0.3884 (LUMO)
        24                          0.1424535               3.8764
        25                          0.2056613               5.5963
        26                          0.2637533               7.1771
        27                          0.2938530               7.9961
       ...                                ...                  ...
        40                          0.8994562              24.4755
      -------------------------------------------------------------
                  HL-Gap            0.0018318 Eh            0.0498 eV
             Fermi-level           -0.0295623 Eh           -0.8044 eV

 SCC (total)                   0 d,  0 h,  0 min,  0.021 sec
 SCC setup                      ...        0 min,  0.000 sec (  1.490%)
 Dispersion                     ...        0 min,  0.000 sec (  0.660%)
 classical contributions        ...        0 min,  0.000 sec (  0.209%)
 integral evaluation            ...        0 min,  0.002 sec ( 11.763%)
 iterations                     ...        0 min,  0.013 sec ( 62.408%)
 molecular gradient             ...        0 min,  0.004 sec ( 20.911%)
 printout                       ...        0 min,  0.001 sec (  2.414%)

         :::::::::::::::::::::::::::::::::::::::::::::::::::::
         ::                     SUMMARY                     ::
         :::::::::::::::::::::::::::::::::::::::::::::::::::::
         :: total energy             -23.216703415080 Eh    ::
         :: gradient norm              0.088929533173 Eh/a0 ::
         :: HOMO-LUMO gap              0.049844834362 eV    ::
         ::.................................................::
         :: SCC energy               -23.580624515681 Eh    ::
         :: -> isotropic ES            0.128401787645 Eh    ::
         :: -> anisotropic ES          0.018450686911 Eh    ::
         :: -> anisotropic XC          0.005843220005 Eh    ::
         :: -> dispersion             -0.013428796827 Eh    ::
         :: repulsion energy           0.363921100601 Eh    ::
         :: add. restraining           0.000000000000 Eh    ::
         :: total charge              -1.000000000000 e     ::
         :::::::::::::::::::::::::::::::::::::::::::::::::::::

           -------------------------------------------------
          |                Property Printout                |
           -------------------------------------------------

    * Orbital Energies and Occupations

         #    Occupation            Energy/Eh            Energy/eV
      -------------------------------------------------------------
         1        2.0000           -0.5335787             -14.5194
       ...           ...                  ...                  ...
        10        2.0000           -0.3369076              -9.1677
        11        2.0000           -0.3119829              -8.4895
        12        2.0000           -0.3016416              -8.2081
        13        2.0000           -0.2959418              -8.0530
        14        2.0000           -0.2684487              -7.3049
        15        2.0000           -0.2581277              -7.0240
        16        2.0000           -0.2497578              -6.7963
        17        2.0000           -0.2297853              -6.2528
        18        2.0000           -0.2176010              -5.9212
        19        2.0000           -0.2051746              -5.5831
        20        2.0000           -0.1676533              -4.5621
        21        2.0000           -0.1574113              -4.2834
        22        0.7239            0.0124435               0.3386 (HOMO)
        23        0.2761            0.0142752               0.3884 (LUMO)
        24                          0.1424535               3.8764
        25                          0.2056613               5.5963
        26                          0.2637533               7.1771
        27                          0.2938530               7.9961
        28                          0.3326257               9.0512
        29                          0.3352031               9.1213
        30                          0.3534912               9.6190
        31                          0.3761061              10.2344
        32                          0.3932855              10.7018
        33                          0.4111385              11.1876
       ...                                ...                  ...
        40                          0.8994562              24.4755
      -------------------------------------------------------------
                  HL-Gap            0.0018318 Eh            0.0498 eV
             Fermi-level           -0.0295623 Eh           -0.8044 eV

     #   Z          covCN         q      C6AA      α(0)
     1   6 C        3.642     0.066    19.812     6.400
     2   8 O        1.705    -0.332    19.562     5.972
     3   6 C        2.864     0.087    26.065     8.369
     4   6 C        2.920    -0.122    31.110     9.147
     5   6 C        2.920    -0.096    30.419     9.044
     6   6 C        2.918    -0.084    30.101     8.997
     7   6 C        2.921    -0.103    30.589     9.070
     8   6 C        2.917    -0.128    31.266     9.169
     9   1 H        0.925     0.012     2.864     2.647
    10   1 H        0.924     0.012     2.853     2.641
    11   1 H        0.924     0.012     2.856     2.643
    12   1 H        0.926    -0.055     4.208     3.208
    13   1 H        0.926    -0.067     4.528     3.328
    14   1 H        0.926    -0.065     4.486     3.312
    15   1 H        0.926    -0.071     4.651     3.373
    16   1 H        0.926    -0.066     4.496     3.316

 Mol. C6AA /au·bohr⁶  :       3276.022733
 Mol. C8AA /au·bohr⁸  :      75202.165447
 Mol. α(0) /au        :         90.633192


Wiberg/Mayer (AO) data.
largest (>0.10) Wiberg bond orders for each atom

 ---------------------------------------------------------------------------
     #   Z sym  total        # sym  WBO       # sym  WBO       # sym  WBO
 ---------------------------------------------------------------------------
     1   6 C    3.976 --     2 O    1.008     9 H    0.984    11 H    0.977
                            10 H    0.977
     2   8 O    2.115 --     1 C    1.008     3 C    0.965
     3   6 C    3.746 --     8 C    1.356     4 C    1.309     2 O    0.965
     4   6 C    3.761 --     3 C    1.309     5 C    1.295    12 H    0.969
     5   6 C    3.778 --     6 C    1.379     4 C    1.295    13 H    0.969
     6   6 C    3.833 --     5 C    1.379     7 C    1.375    14 H    0.970
     7   6 C    3.760 --     6 C    1.375     8 C    1.271    15 H    0.969
     8   6 C    3.774 --     3 C    1.356     7 C    1.271    16 H    0.965
     9   1 H    0.999 --     1 C    0.984
    10   1 H    0.999 --     1 C    0.977
    11   1 H    0.999 --     1 C    0.977
    12   1 H    0.997 --     4 C    0.969
    13   1 H    0.995 --     5 C    0.969
    14   1 H    0.996 --     6 C    0.970
    15   1 H    0.995 --     7 C    0.969
    16   1 H    0.996 --     8 C    0.965
 ---------------------------------------------------------------------------

Topologies differ in total number of bonds
Writing topology from bond orders to xtbtopo.mol

molecular dipole:
                 x           y           z       tot (Debye)
 q only:       -1.605      -0.366      -0.568
   full:       -1.740      -0.535      -0.631       4.898
molecular quadrupole (traceless):
                xx          xy          yy          xz          yz          zz
 q only:       -5.549       2.288      -1.744      -2.045      -2.378       7.293
  q+dip:       -4.523       2.541      -0.286      -1.465      -1.312       4.809
   full:       -4.328       2.750      -1.064      -1.480      -1.650       5.392


           -------------------------------------------------
          | TOTAL ENERGY              -23.216703415080 Eh   |
          | GRADIENT NORM               0.088929533173 Eh/α |
          | HOMO-LUMO GAP               0.049844834362 eV   |
           -------------------------------------------------

------------------------------------------------------------------------
 * finished run on 2026/09/27 at 14:01:46.037     
------------------------------------------------------------------------
 total:
 * wall-time:     0 d,  0 h,  0 min,  0.051 sec
 *  cpu-time:     0 d,  0 h,  0 min,  0.031 sec
 * ratio c/w:     0.613 speedup
 SCF:
 * wall-time:     0 d,  0 h,  0 min,  0.021 sec
 *  cpu-time:     0 d,  0 h,  0 min,  0.016 sec
 * ratio c/w:     0.731 speedup

