11
 energy: -16.157343553468 gnorm: 0.000453461071 xtb: 6.7.1 (edcfbbe)
C           -0.02606879511904        1.18716274807248       -0.04713650075400
C           -1.20248964395378        0.45578991594740        0.00914572231323
C           -1.11360298708361       -0.92780566648130        0.06322743237834
N            0.03481479625239       -1.58515514184000        0.06324839204970
C            1.15331305190325       -0.88025355590745        0.00876789615984
C            1.18125578065981        0.50583873599881       -0.04753171352816
H           -0.04958219573705        2.26668571591770       -0.09051278782459
H           -2.16441762852608        0.94483448915890        0.01135802874891
H           -2.00294469058480       -1.54361950099234        0.10914610391981
H            2.06887839911301       -1.45815016416118        0.01104768904538
H            2.12084191307591        1.03467342428697       -0.09075826250846
