      -----------------------------------------------------------      
     |                   =====================                   |     
     |                           x T B                           |     
     |                   =====================                   |     
     |                         S. Grimme                         |     
     |          Mulliken Center for Theoretical Chemistry        |     
     |                    University of Bonn                     |     
      -----------------------------------------------------------      

   * xtb version 6.7.1 (edcfbbe) compiled by 'VssAdministrator@runnervm171ch' on 2026-06-10

   xtb is free software: you can redistribute it and/or modify it under
   the terms of the GNU Lesser General Public License as published by
   the Free Software Foundation, either version 3 of the License, or
   (at your option) any later version.
   
   xtb is distributed in the hope that it will be useful,
   but WITHOUT ANY WARRANTY; without even the implied warranty of
   MERCHANTABILITY or FITNESS FOR A PARTICULAR PURPOSE.  See the
   GNU Lesser General Public License for more details.
   
   Cite this work as:
   * C. Bannwarth, E. Caldeweyher, S. Ehlert, A. Hansen, P. Pracht,
     J. Seibert, S. Spicher, S. Grimme, WIREs Comput. Mol. Sci., 2020, 11,
     e01493. DOI: 10.1002/wcms.1493
   
   for GFN2-xTB:
   * C. Bannwarth, S. Ehlert and S. Grimme., J. Chem. Theory Comput., 2019,
     15, 1652-1671. DOI: 10.1021/acs.jctc.8b01176
   for GFN1-xTB:
   * S. Grimme, C. Bannwarth, P. Shushkov, J. Chem. Theory Comput., 2017,
     13, 1989-2009. DOI: 10.1021/acs.jctc.7b00118
   for GFN0-xTB:
   * P. Pracht, E. Caldeweyher, S. Ehlert, S. Grimme, ChemRxiv, 2019, preprint.
     DOI: 10.26434/chemrxiv.8326202.v1
   for GFN-FF:
   * S. Spicher and S. Grimme, Angew. Chem. Int. Ed., 2020, 59, 15665-15673.
     DOI: 10.1002/anie.202004239
   
   for ALPB and GBSA implicit solvation:
   * S. Ehlert, M. Stahn, S. Spicher, S. Grimme, J. Chem. Theory Comput.,
     2021, 17, 4250-4261. DOI: 10.1021/acs.jctc.1c00471
   
   for ddCOSMO and CPCM-X implicit solvation:
   * M. Stahn, S. Ehlert, S. Grimme, J. Phys. Chem. A,
     2023, XX, XXXX-XXXX. DOI: 10.1021/acs.jpca.3c04382
   
   for DFT-D4:
   * E. Caldeweyher, C. Bannwarth and S. Grimme, J. Chem. Phys., 2017,
     147, 034112. DOI: 10.1063/1.4993215
   * E. Caldeweyher, S. Ehlert, A. Hansen, H. Neugebauer, S. Spicher,
     C. Bannwarth and S. Grimme, J. Chem. Phys., 2019, 150, 154122.
     DOI: 10.1063/1.5090222
   * E. Caldeweyher, J.-M. Mewes, S. Ehlert and S. Grimme, Phys. Chem. Chem. Phys.
     2020, 22, 8499-8512. DOI: 10.1039/D0CP00502A
   
   for sTDA-xTB:
   * S. Grimme and C. Bannwarth, J. Chem. Phys., 2016, 145, 054103.
     DOI: 10.1063/1.4959605
   
   in the mass-spec context:
   * V. Asgeirsson, C. Bauer and S. Grimme, Chem. Sci., 2017, 8, 4879.
     DOI: 10.1039/c7sc00601b
   * J. Koopman and S. Grimme, ACS Omega 2019, 4, 12, 15120-15133.
     DOI: 10.1021/acsomega.9b02011
   
   for metadynamics refer to:
   * S. Grimme, J. Chem. Theory Comput., 2019, 155, 2847-2862
     DOI: 10.1021/acs.jctc.9b00143
   
   for SPH calculations refer to:
   * S. Spicher and S. Grimme, J. Chem. Theory Comput., 2021, 17, 1701-1714
     DOI: 10.1021/acs.jctc.0c01306
   
   for ONIOM refer to:
   * C. Plett, A. Katbashev, S. Ehlert, S. Grimme, M. Bursch,
     Phys. Chem. Chem. Phys., 2023, 25, 17860-17868. DOI: 10.1039/D3CP02178E
   
   for DIPRO refer to:
   * J. Kohn, N. Gildemeister, S. Grimme, D. Fazzi, A. Hansen,
     J. Chem. Phys., 2023, just accepted.
   
   for PTB refer to:
   * S. Grimme, M. Mueller, A. Hansen, J. Chem. Phys., 2023, 158, 124111.
     DOI: 10.1063/5.0137838
   
   with help from (in alphabetical order)
   P. Atkinson, C. Bannwarth, F. Bohle, G. Brandenburg, E. Caldeweyher
   M. Checinski, S. Dohm, S. Ehlert, S. Ehrlich, I. Gerasimov, C. Hölzer
   A. Katbashev, J. Kohn, J. Koopman, C. Lavigne, S. Lehtola, F. März, M. Müller,
   F. Musil, H. Neugebauer, J. Pisarek, C. Plett, P. Pracht, F. Pultar,
   J. Seibert, P. Shushkov, S. Spicher, M. Stahn, M. Steiner, T. Strunk,
   J. Stückrath, T. Rose, and J. Unsleber
   
 * started run on 2026/09/27 at 14:01:47.022     
   ID    Z sym.   atoms
    1    6 C      1, 3-10
    2    7 N      2
    3    1 H      11-19

           -------------------------------------------------
          |                Calculation Setup                |
           -------------------------------------------------

          program call               : xtb input.xyz --gfn 2 --alpb acetonitrile --chrg 1 --uhf 1 --scc --json --parallel 1 --norestart
          coordinate file            : input.xyz
          omp threads                :                     1


           -------------------------------------------------
          |                 G F N 2 - x T B                 |
           -------------------------------------------------

        Reference                      10.1021/acs.jctc.8b01176
      * Hamiltonian:
        H0-scaling (s, p, d)           1.850000    2.230000    2.230000
        zeta-weighting                 0.500000
      * Dispersion:
        s8                             2.700000
        a1                             0.520000
        a2                             5.000000
        s9                             5.000000
      * Repulsion:
        kExp                           1.500000    1.000000
        rExp                           1.000000
      * Coulomb:
        alpha                          2.000000
        third order                    shell-resolved
        anisotropic                    true
        a3                             3.000000
        a5                             4.000000
        cn-shift                       1.200000
        cn-exp                         4.000000
        max-rad                        5.000000

      * Solvation model:               ALPB
        Solvent                        acetonitrile
        Parameter file                 internal GFN2-xTB/ALPB
        Dielectric constant                3.7500E+01
        Reference state                gsolv [1 M gas/solution]
        Free energy shift                  5.1987E-03 Eh       3.2622E+00 kcal/mol
        Temperature                        2.9815E+02 K
        Density                            7.8600E-01 kg/L
        Solvent mass                       4.1050E+01 g/mol
        Interaction kernel             P16
        Born radius scaling (c1)           1.7214E+00
        Born radii integrator          GBOBC
        Born offset                        0.0000E+00 a0       0.0000E+00 AA
        H-bond correction              true
        Ion screening                  false
        Surface tension                    1.0000E-05 Eh       1.5569E+01 dyn/cm
        Grid points                               230 per atom

          ...................................................
          :                      SETUP                      :
          :.................................................:
          :  # basis functions                  49          :
          :  # atomic orbitals                  49          :
          :  # shells                           29          :
          :  # electrons                        49          :
          :  max. iterations                   250          :
          :  Hamiltonian                  GFN2-xTB          :
          :  restarted?                      false          :
          :  GBSA solvation                   true          :
          :  PC potential                    false          :
          :  electronic temp.          300.0000000     K    :
          :  accuracy                    1.0000000          :
          :  -> integral cutoff          0.2500000E+02      :
          :  -> integral neglect         0.1000000E-07      :
          :  -> SCF convergence          0.1000000E-05 Eh   :
          :  -> wf. convergence          0.1000000E-03 e    :
          :  Broyden damping             0.4000000          :
          :  net charge                          1          :
          :  unpaired electrons                  1          :
          ...................................................

 iter      E             dE          RMSdq      gap      omega  full diag
   1    -26.7981466 -0.267981E+02  0.468E+00    3.28       0.0  T
   2    -26.8654262 -0.672796E-01  0.341E+00    3.79       1.0  T
   3    -26.8786272 -0.132010E-01  0.172E+00    3.58       1.0  T
   4    -26.8797250 -0.109786E-02  0.717E-01    3.73       1.0  T
   5    -26.8855430 -0.581797E-02  0.193E-01    3.68       1.0  T
   6    -26.8858407 -0.297687E-03  0.962E-02    3.67       1.0  T
   7    -26.8859657 -0.125025E-03  0.416E-02    3.69       1.0  T
   8    -26.8859833 -0.176108E-04  0.210E-02    3.68       1.1  T
   9    -26.8859852 -0.186888E-05  0.928E-03    3.68       2.5  T
  10    -26.8859868 -0.159056E-05  0.256E-03    3.68       9.0  T
  11    -26.8859869 -0.126024E-06  0.684E-04    3.68      33.5  T
  12    -26.8859869 -0.101446E-08  0.387E-04    3.68      59.3  T

   *** convergence criteria satisfied after 12 iterations ***

         #    Occupation            Energy/Eh            Energy/eV
      -------------------------------------------------------------
         1        2.0000           -0.7459302             -20.2978
       ...           ...                  ...                  ...
        19        2.0000           -0.5081155             -13.8265
        20        2.0000           -0.5078948             -13.8205
        21        2.0000           -0.4834228             -13.1546
        22        2.0000           -0.4828099             -13.1379
        23        2.0000           -0.4712573             -12.8236
        24        1.9987           -0.4455422             -12.1238
        25        1.0013           -0.4329295             -11.7806 (HOMO)
        26                         -0.2976213              -8.0987 (LUMO)
        27                         -0.2611453              -7.1061
        28                         -0.2258687              -6.1462
        29                         -0.1356378              -3.6909
        30                         -0.0404452              -1.1006
       ...                                ...                  ...
        49                          0.6617594              18.0074
      -------------------------------------------------------------
                  HL-Gap            0.1353082 Eh            3.6819 eV
             Fermi-level           -0.4022556 Eh          -10.9459 eV

 SCC (total)                   0 d,  0 h,  0 min,  0.033 sec
 SCC setup                      ...        0 min,  0.001 sec (  3.132%)
 Dispersion                     ...        0 min,  0.000 sec (  0.573%)
 classical contributions        ...        0 min,  0.000 sec (  0.164%)
 integral evaluation            ...        0 min,  0.003 sec (  9.518%)
 iterations                     ...        0 min,  0.019 sec ( 56.317%)
 molecular gradient             ...        0 min,  0.009 sec ( 28.370%)
 printout                       ...        0 min,  0.001 sec (  1.838%)

         :::::::::::::::::::::::::::::::::::::::::::::::::::::
         ::                     SUMMARY                     ::
         :::::::::::::::::::::::::::::::::::::::::::::::::::::
         :: total energy             -26.404590389716 Eh    ::
         :: total w/o Gsasa/hb       -26.392744206627 Eh    ::
         :: gradient norm              0.069576663955 Eh/a0 ::
         :: HOMO-LUMO gap              3.681923363991 eV    ::
         ::.................................................::
         :: SCC energy               -26.885937684503 Eh    ::
         :: -> isotropic ES            0.081266484974 Eh    ::
         :: -> anisotropic ES         -0.015377374317 Eh    ::
         :: -> anisotropic XC          0.020143249624 Eh    ::
         :: -> dispersion             -0.015343214164 Eh    ::
         :: -> Gsolv                  -0.074485006170 Eh    ::
         ::    -> Gelec               -0.062638823082 Eh    ::
         ::    -> Gsasa               -0.014859667454 Eh    ::
         ::    -> Ghb                 -0.002185170386 Eh    ::
         ::    -> Gshift               0.005198654751 Eh    ::
         :: repulsion energy           0.481347294788 Eh    ::
         :: add. restraining           0.000000000000 Eh    ::
         :: total charge               1.000000000000 e     ::
         :::::::::::::::::::::::::::::::::::::::::::::::::::::

           -------------------------------------------------
          |                Property Printout                |
           -------------------------------------------------

    * Orbital Energies and Occupations

         #    Occupation            Energy/Eh            Energy/eV
      -------------------------------------------------------------
         1        2.0000           -0.7459302             -20.2978
       ...           ...                  ...                  ...
        13        2.0000           -0.5579365             -15.1822
        14        2.0000           -0.5447154             -14.8225
        15        2.0000           -0.5377351             -14.6325
        16        2.0000           -0.5366249             -14.6023
        17        2.0000           -0.5279942             -14.3675
        18        2.0000           -0.5178222             -14.0907
        19        2.0000           -0.5081155             -13.8265
        20        2.0000           -0.5078948             -13.8205
        21        2.0000           -0.4834228             -13.1546
        22        2.0000           -0.4828099             -13.1379
        23        2.0000           -0.4712573             -12.8236
        24        1.9987           -0.4455422             -12.1238
        25        1.0013           -0.4329295             -11.7806 (HOMO)
        26                         -0.2976213              -8.0987 (LUMO)
        27                         -0.2611453              -7.1061
        28                         -0.2258687              -6.1462
        29                         -0.1356378              -3.6909
        30                         -0.0404452              -1.1006
        31                          0.0633470               1.7238
        32                          0.0687539               1.8709
        33                          0.0845137               2.2997
        34                          0.1019745               2.7749
        35                          0.1142642               3.1093
        36                          0.1229510               3.3457
       ...                                ...                  ...
        49                          0.6617594              18.0074
      -------------------------------------------------------------
                  HL-Gap            0.1353082 Eh            3.6819 eV
             Fermi-level           -0.4022556 Eh          -10.9459 eV

     #   Z          covCN         q      C6AA      α(0)
     1   6 C        3.690    -0.096    22.541     6.795
     2   7 N        2.820     0.072    19.980     6.639
     3   6 C        3.051     0.018    27.563     8.610
     4   6 C        3.008    -0.005    28.136     8.701
     5   6 C        3.116     0.003    27.786     8.634
     6   6 C        2.911     0.011    27.770     8.641
     7   6 C        2.919    -0.016    28.403     8.740
     8   6 C        2.923    -0.008    28.219     8.711
     9   6 C        2.908    -0.003    28.088     8.690
    10   6 C        3.108     0.041    26.947     8.505
    11   1 H        0.924     0.131     1.531     1.935
    12   1 H        0.924     0.131     1.531     1.935
    13   1 H        0.925     0.114     1.664     2.017
    14   1 H        0.926     0.115     1.650     2.009
    15   1 H        0.926     0.111     1.689     2.032
    16   1 H        0.926     0.097     1.810     2.104
    17   1 H        0.926     0.089     1.892     2.151
    18   1 H        0.926     0.093     1.847     2.125
    19   1 H        0.926     0.102     1.767     2.079

 Mol. C6AA /au·bohr⁶  :       3988.278067
 Mol. C8AA /au·bohr⁸  :      98763.475522
 Mol. α(0) /au        :        101.053960


Wiberg/Mayer (AO) data.
largest (>0.10) Wiberg bond orders for each atom

 ---------------------------------------------------------------------------
     #   Z sym  total        # sym  WBO       # sym  WBO       # sym  WBO
 ---------------------------------------------------------------------------
     1   6 C    3.933 --     2 N    1.019    13 H    0.972    11 H    0.933
                            12 H    0.933
     2   7 N    3.705 --     3 C    1.327    10 C    1.131     1 C    1.019
     3   6 C    3.950 --     4 C    1.433     2 N    1.327    14 H    0.956
     4   6 C    3.905 --     3 C    1.433     5 C    1.232    15 H    0.961
     5   6 C    3.987 --     6 C    1.326    10 C    1.245     4 C    1.232
     6   6 C    3.943 --     7 C    1.398     5 C    1.326    16 H    0.960
     7   6 C    3.979 --     8 C    1.450     6 C    1.398    17 H    0.964
     8   6 C    3.975 --     7 C    1.450     9 C    1.371    18 H    0.963
     9   6 C    3.956 --    10 C    1.376     8 C    1.371    19 H    0.958
    10   6 C    3.962 --     9 C    1.376     5 C    1.245     2 N    1.131
    11   1 H    0.981 --     1 C    0.933
    12   1 H    0.981 --     1 C    0.933
    13   1 H    0.987 --     1 C    0.972
    14   1 H    0.986 --     3 C    0.956
    15   1 H    0.987 --     4 C    0.961
    16   1 H    0.990 --     6 C    0.960
    17   1 H    0.992 --     7 C    0.964
    18   1 H    0.991 --     8 C    0.963
    19   1 H    0.989 --     9 C    0.958
 ---------------------------------------------------------------------------

Topologies differ in total number of bonds
Writing topology from bond orders to xtbtopo.mol

molecular dipole:
                 x           y           z       tot (Debye)
 q only:       -0.822      -0.062      -0.023
   full:       -0.857      -0.023      -0.031       2.181
molecular quadrupole (traceless):
                xx          xy          yy          xz          yz          zz
 q only:       13.392       0.704       1.417       1.025      -3.241     -14.809
  q+dip:       14.586       0.331       3.497       1.272      -4.343     -18.084
   full:       12.918       0.436       1.660       1.046      -3.257     -14.578


           -------------------------------------------------
          | TOTAL ENERGY              -26.404590389716 Eh   |
          | GRADIENT NORM               0.069576663955 Eh/α |
          | HOMO-LUMO GAP               3.681923363991 eV   |
           -------------------------------------------------

------------------------------------------------------------------------
 * finished run on 2026/09/27 at 14:01:47.085     
------------------------------------------------------------------------
 total:
 * wall-time:     0 d,  0 h,  0 min,  0.062 sec
 *  cpu-time:     0 d,  0 h,  0 min,  0.000 sec
 * ratio c/w:     0.000 speedup
 SCF:
 * wall-time:     0 d,  0 h,  0 min,  0.034 sec
 *  cpu-time:     0 d,  0 h,  0 min,  0.000 sec
 * ratio c/w:     0.000 speedup

