22
 energy: -33.235632759629 gnorm: 0.000141315879 xtb: 6.7.1 (edcfbbe)
C            3.35185254271183        0.57237418165143        0.17499815137179
C            3.10581336463996       -0.79790943074118        0.10110226313867
C            1.81705527335427       -1.28837456398808        0.02137181824357
C            0.76007540303439       -0.38659607893456        0.01607322126355
C            1.02197428900083        1.00274500272175        0.09360659528790
C            2.31846194735293        1.48993758112437        0.17296888865861
N           -0.16869376945973        1.68334415100318        0.07413128452754
C           -1.20110917444035        0.78471115002856       -0.01553395504612
C           -2.56898473351859        1.01057423769261       -0.06448436229840
C           -3.40014289846918       -0.08987622561034       -0.15486862507264
C           -2.88704728732229       -1.38547591820539       -0.19581982896729
C           -1.52605593659593       -1.61607842564692       -0.14766584366805
C           -0.66864572030970       -0.52663283723371       -0.05511721724378
H            4.37219075371421        0.92237974718785        0.23646813033099
H            3.94059380091993       -1.48372379121903        0.10614848127826
H            1.63193747656008       -2.35084081706883       -0.03669344029303
H            2.51402825906010        2.55048320481997        0.23220641086452
H           -0.26877949802111        2.68290557180307        0.11792043878595
H           -2.97113141207225        2.01247456548385       -0.03315524255263
H           -4.47009778565588        0.05513249797312       -0.19493599147675
H           -3.56964527510009       -2.21979661148550       -0.26803722833190
H           -1.13364961938341       -2.62175619135624       -0.18068594880077
