      -----------------------------------------------------------      
     |                   =====================                   |     
     |                           x T B                           |     
     |                   =====================                   |     
     |                         S. Grimme                         |     
     |          Mulliken Center for Theoretical Chemistry        |     
     |                    University of Bonn                     |     
      -----------------------------------------------------------      

   * xtb version 6.7.1 (edcfbbe) compiled by 'VssAdministrator@runnervm171ch' on 2026-06-10

   xtb is free software: you can redistribute it and/or modify it under
   the terms of the GNU Lesser General Public License as published by
   the Free Software Foundation, either version 3 of the License, or
   (at your option) any later version.
   
   xtb is distributed in the hope that it will be useful,
   but WITHOUT ANY WARRANTY; without even the implied warranty of
   MERCHANTABILITY or FITNESS FOR A PARTICULAR PURPOSE.  See the
   GNU Lesser General Public License for more details.
   
   Cite this work as:
   * C. Bannwarth, E. Caldeweyher, S. Ehlert, A. Hansen, P. Pracht,
     J. Seibert, S. Spicher, S. Grimme, WIREs Comput. Mol. Sci., 2020, 11,
     e01493. DOI: 10.1002/wcms.1493
   
   for GFN2-xTB:
   * C. Bannwarth, S. Ehlert and S. Grimme., J. Chem. Theory Comput., 2019,
     15, 1652-1671. DOI: 10.1021/acs.jctc.8b01176
   for GFN1-xTB:
   * S. Grimme, C. Bannwarth, P. Shushkov, J. Chem. Theory Comput., 2017,
     13, 1989-2009. DOI: 10.1021/acs.jctc.7b00118
   for GFN0-xTB:
   * P. Pracht, E. Caldeweyher, S. Ehlert, S. Grimme, ChemRxiv, 2019, preprint.
     DOI: 10.26434/chemrxiv.8326202.v1
   for GFN-FF:
   * S. Spicher and S. Grimme, Angew. Chem. Int. Ed., 2020, 59, 15665-15673.
     DOI: 10.1002/anie.202004239
   
   for ALPB and GBSA implicit solvation:
   * S. Ehlert, M. Stahn, S. Spicher, S. Grimme, J. Chem. Theory Comput.,
     2021, 17, 4250-4261. DOI: 10.1021/acs.jctc.1c00471
   
   for ddCOSMO and CPCM-X implicit solvation:
   * M. Stahn, S. Ehlert, S. Grimme, J. Phys. Chem. A,
     2023, XX, XXXX-XXXX. DOI: 10.1021/acs.jpca.3c04382
   
   for DFT-D4:
   * E. Caldeweyher, C. Bannwarth and S. Grimme, J. Chem. Phys., 2017,
     147, 034112. DOI: 10.1063/1.4993215
   * E. Caldeweyher, S. Ehlert, A. Hansen, H. Neugebauer, S. Spicher,
     C. Bannwarth and S. Grimme, J. Chem. Phys., 2019, 150, 154122.
     DOI: 10.1063/1.5090222
   * E. Caldeweyher, J.-M. Mewes, S. Ehlert and S. Grimme, Phys. Chem. Chem. Phys.
     2020, 22, 8499-8512. DOI: 10.1039/D0CP00502A
   
   for sTDA-xTB:
   * S. Grimme and C. Bannwarth, J. Chem. Phys., 2016, 145, 054103.
     DOI: 10.1063/1.4959605
   
   in the mass-spec context:
   * V. Asgeirsson, C. Bauer and S. Grimme, Chem. Sci., 2017, 8, 4879.
     DOI: 10.1039/c7sc00601b
   * J. Koopman and S. Grimme, ACS Omega 2019, 4, 12, 15120-15133.
     DOI: 10.1021/acsomega.9b02011
   
   for metadynamics refer to:
   * S. Grimme, J. Chem. Theory Comput., 2019, 155, 2847-2862
     DOI: 10.1021/acs.jctc.9b00143
   
   for SPH calculations refer to:
   * S. Spicher and S. Grimme, J. Chem. Theory Comput., 2021, 17, 1701-1714
     DOI: 10.1021/acs.jctc.0c01306
   
   for ONIOM refer to:
   * C. Plett, A. Katbashev, S. Ehlert, S. Grimme, M. Bursch,
     Phys. Chem. Chem. Phys., 2023, 25, 17860-17868. DOI: 10.1039/D3CP02178E
   
   for DIPRO refer to:
   * J. Kohn, N. Gildemeister, S. Grimme, D. Fazzi, A. Hansen,
     J. Chem. Phys., 2023, just accepted.
   
   for PTB refer to:
   * S. Grimme, M. Mueller, A. Hansen, J. Chem. Phys., 2023, 158, 124111.
     DOI: 10.1063/5.0137838
   
   with help from (in alphabetical order)
   P. Atkinson, C. Bannwarth, F. Bohle, G. Brandenburg, E. Caldeweyher
   M. Checinski, S. Dohm, S. Ehlert, S. Ehrlich, I. Gerasimov, C. Hölzer
   A. Katbashev, J. Kohn, J. Koopman, C. Lavigne, S. Lehtola, F. März, M. Müller,
   F. Musil, H. Neugebauer, J. Pisarek, C. Plett, P. Pracht, F. Pultar,
   J. Seibert, P. Shushkov, S. Spicher, M. Stahn, M. Steiner, T. Strunk,
   J. Stückrath, T. Rose, and J. Unsleber
   
 * started run on 2026/09/27 at 21:41:10.617     
   ID    Z sym.   atoms
    1    6 C      1-6, 8-13
    2    7 N      7
    3    1 H      14-22

           -------------------------------------------------
          |                Calculation Setup                |
           -------------------------------------------------

          program call               : xtb input.xyz --gfn 2 --alpb acetonitrile --chrg 1 --uhf 1 --scc --json --parallel 1 --norestart
          coordinate file            : input.xyz
          omp threads                :                     1


           -------------------------------------------------
          |                 G F N 2 - x T B                 |
           -------------------------------------------------

        Reference                      10.1021/acs.jctc.8b01176
      * Hamiltonian:
        H0-scaling (s, p, d)           1.850000    2.230000    2.230000
        zeta-weighting                 0.500000
      * Dispersion:
        s8                             2.700000
        a1                             0.520000
        a2                             5.000000
        s9                             5.000000
      * Repulsion:
        kExp                           1.500000    1.000000
        rExp                           1.000000
      * Coulomb:
        alpha                          2.000000
        third order                    shell-resolved
        anisotropic                    true
        a3                             3.000000
        a5                             4.000000
        cn-shift                       1.200000
        cn-exp                         4.000000
        max-rad                        5.000000

      * Solvation model:               ALPB
        Solvent                        acetonitrile
        Parameter file                 internal GFN2-xTB/ALPB
        Dielectric constant                3.7500E+01
        Reference state                gsolv [1 M gas/solution]
        Free energy shift                  5.1987E-03 Eh       3.2622E+00 kcal/mol
        Temperature                        2.9815E+02 K
        Density                            7.8600E-01 kg/L
        Solvent mass                       4.1050E+01 g/mol
        Interaction kernel             P16
        Born radius scaling (c1)           1.7214E+00
        Born radii integrator          GBOBC
        Born offset                        0.0000E+00 a0       0.0000E+00 AA
        H-bond correction              true
        Ion screening                  false
        Surface tension                    1.0000E-05 Eh       1.5569E+01 dyn/cm
        Grid points                               230 per atom

          ...................................................
          :                      SETUP                      :
          :.................................................:
          :  # basis functions                  61          :
          :  # atomic orbitals                  61          :
          :  # shells                           35          :
          :  # electrons                        61          :
          :  max. iterations                   250          :
          :  Hamiltonian                  GFN2-xTB          :
          :  restarted?                      false          :
          :  GBSA solvation                   true          :
          :  PC potential                    false          :
          :  electronic temp.          300.0000000     K    :
          :  accuracy                    1.0000000          :
          :  -> integral cutoff          0.2500000E+02      :
          :  -> integral neglect         0.1000000E-07      :
          :  -> SCF convergence          0.1000000E-05 Eh   :
          :  -> wf. convergence          0.1000000E-03 e    :
          :  Broyden damping             0.4000000          :
          :  net charge                          1          :
          :  unpaired electrons                  1          :
          ...................................................

 iter      E             dE          RMSdq      gap      omega  full diag
   1    -33.3675696 -0.333676E+02  0.522E+00    2.81       0.0  T
   2    -33.4381985 -0.706289E-01  0.358E+00    3.68       1.0  T
   3    -33.4508314 -0.126329E-01  0.202E+00    3.23       1.0  T
   4    -33.4604713 -0.963991E-02  0.688E-01    3.59       1.0  T
   5    -33.4684796 -0.800825E-02  0.303E-01    3.50       1.0  T
   6    -33.4690077 -0.528176E-03  0.110E-01    3.52       1.0  T
   7    -33.4690762 -0.684214E-04  0.426E-02    3.54       1.0  T
   8    -33.4690770 -0.830074E-06  0.324E-02    3.53       1.0  T
   9    -33.4690904 -0.134615E-04  0.106E-02    3.53       2.0  T
  10    -33.4690919 -0.149855E-05  0.343E-03    3.53       6.2  T
  11    -33.4690921 -0.149301E-06  0.196E-03    3.53      10.9  T
  12    -33.4690921 -0.266152E-07  0.511E-04    3.53      41.7  T
  13    -33.4690921 -0.485035E-08  0.237E-04    3.53      90.1  T

   *** convergence criteria satisfied after 13 iterations ***

         #    Occupation            Energy/Eh            Energy/eV
      -------------------------------------------------------------
         1        2.0000           -0.7435300             -20.2325
       ...           ...                  ...                  ...
        25        2.0000           -0.4824774             -13.1289
        26        2.0000           -0.4787475             -13.0274
        27        2.0000           -0.4678033             -12.7296
        28        2.0000           -0.4670435             -12.7089
        29        2.0000           -0.4640383             -12.6271
        30        1.9440           -0.4352096             -11.8427
        31        1.0560           -0.4298423             -11.6966 (HOMO)
        32                         -0.2999902              -8.1631 (LUMO)
        33                         -0.2797243              -7.6117
        34                         -0.2531013              -6.8872
        35                         -0.2411390              -6.5617
        36                         -0.1487130              -4.0467
       ...                                ...                  ...
        61                          0.6852824              18.6475
      -------------------------------------------------------------
                  HL-Gap            0.1298520 Eh            3.5335 eV
             Fermi-level           -0.3987211 Eh          -10.8498 eV

 SCC (total)                   0 d,  0 h,  0 min,  0.026 sec
 SCC setup                      ...        0 min,  0.001 sec (  2.778%)
 Dispersion                     ...        0 min,  0.000 sec (  0.981%)
 classical contributions        ...        0 min,  0.000 sec (  0.171%)
 integral evaluation            ...        0 min,  0.003 sec ( 10.131%)
 iterations                     ...        0 min,  0.014 sec ( 54.088%)
 molecular gradient             ...        0 min,  0.008 sec ( 29.350%)
 printout                       ...        0 min,  0.001 sec (  2.412%)

         :::::::::::::::::::::::::::::::::::::::::::::::::::::
         ::                     SUMMARY                     ::
         :::::::::::::::::::::::::::::::::::::::::::::::::::::
         :: total energy             -32.839587222217 Eh    ::
         :: total w/o Gsasa/hb       -32.824416741867 Eh    ::
         :: gradient norm              0.049219514554 Eh/a0 ::
         :: HOMO-LUMO gap              3.533453948297 eV    ::
         ::.................................................::
         :: SCC energy               -33.469100324656 Eh    ::
         :: -> isotropic ES            0.079122305580 Eh    ::
         :: -> anisotropic ES         -0.015901510311 Eh    ::
         :: -> anisotropic XC          0.023473566866 Eh    ::
         :: -> dispersion             -0.021195525393 Eh    ::
         :: -> Gsolv                  -0.073790802714 Eh    ::
         ::    -> Gelec               -0.058620322365 Eh    ::
         ::    -> Gsasa               -0.017726969633 Eh    ::
         ::    -> Ghb                 -0.002642165468 Eh    ::
         ::    -> Gshift               0.005198654751 Eh    ::
         :: repulsion energy           0.629513102439 Eh    ::
         :: add. restraining           0.000000000000 Eh    ::
         :: total charge               1.000000000000 e     ::
         :::::::::::::::::::::::::::::::::::::::::::::::::::::

           -------------------------------------------------
          |                Property Printout                |
           -------------------------------------------------

    * Orbital Energies and Occupations

         #    Occupation            Energy/Eh            Energy/eV
      -------------------------------------------------------------
         1        2.0000           -0.7435300             -20.2325
       ...           ...                  ...                  ...
        19        2.0000           -0.5319422             -14.4749
        20        2.0000           -0.5295265             -14.4091
        21        2.0000           -0.5270413             -14.3415
        22        2.0000           -0.5227002             -14.2234
        23        2.0000           -0.5160379             -14.0421
        24        2.0000           -0.4836294             -13.1602
        25        2.0000           -0.4824774             -13.1289
        26        2.0000           -0.4787475             -13.0274
        27        2.0000           -0.4678033             -12.7296
        28        2.0000           -0.4670435             -12.7089
        29        2.0000           -0.4640383             -12.6271
        30        1.9440           -0.4352096             -11.8427
        31        1.0560           -0.4298423             -11.6966 (HOMO)
        32                         -0.2999902              -8.1631 (LUMO)
        33                         -0.2797243              -7.6117
        34                         -0.2531013              -6.8872
        35                         -0.2411390              -6.5617
        36                         -0.1487130              -4.0467
        37                         -0.1177863              -3.2051
        38                         -0.0344323              -0.9370
        39                          0.0581425               1.5821
        40                          0.0736534               2.0042
        41                          0.0918668               2.4998
        42                          0.1008490               2.7442
       ...                                ...                  ...
        61                          0.6852824              18.6475
      -------------------------------------------------------------
                  HL-Gap            0.1298520 Eh            3.5335 eV
             Fermi-level           -0.3987211 Eh          -10.8498 eV

     #   Z          covCN         q      C6AA      α(0)
     1   6 C        2.924    -0.018    28.453     8.747
     2   6 C        2.919    -0.001    28.063     8.687
     3   6 C        2.912    -0.007    28.197     8.707
     4   6 C        3.070     0.007    27.789     8.644
     5   6 C        3.073     0.073    26.289     8.407
     6   6 C        2.909    -0.016    28.417     8.741
     7   7 N        2.754    -0.048    22.171     6.993
     8   6 C        3.073     0.073    26.289     8.407
     9   6 C        2.909    -0.016    28.416     8.741
    10   6 C        2.924    -0.018    28.453     8.747
    11   6 C        2.920    -0.001    28.063     8.687
    12   6 C        2.912    -0.007    28.197     8.707
    13   6 C        3.070     0.007    27.790     8.644
    14   1 H        0.926     0.087     1.910     2.161
    15   1 H        0.926     0.090     1.877     2.142
    16   1 H        0.926     0.090     1.881     2.145
    17   1 H        0.926     0.094     1.839     2.120
    18   1 H        0.860     0.251     0.881     1.471
    19   1 H        0.926     0.094     1.839     2.120
    20   1 H        0.926     0.087     1.910     2.161
    21   1 H        0.926     0.090     1.877     2.143
    22   1 H        0.926     0.090     1.880     2.144

 Mol. C6AA /au·bohr⁶  :       6386.390129
 Mol. C8AA /au·bohr⁸  :     163205.153347
 Mol. α(0) /au        :        129.468114


Wiberg/Mayer (AO) data.
largest (>0.10) Wiberg bond orders for each atom

 ---------------------------------------------------------------------------
     #   Z sym  total        # sym  WBO       # sym  WBO       # sym  WBO
 ---------------------------------------------------------------------------
     1   6 C    3.949 --     6 C    1.461     2 C    1.395    14 H    0.965
     2   6 C    3.904 --     1 C    1.395     3 C    1.378    15 H    0.964
     3   6 C    3.955 --     4 C    1.420     2 C    1.378    16 H    0.962
     4   6 C    3.969 --     3 C    1.420     5 C    1.223    13 C    1.117
     5   6 C    3.950 --     6 C    1.299     4 C    1.223     7 N    1.219
     6   6 C    3.931 --     1 C    1.461     5 C    1.299    17 H    0.960
     7   7 N    3.596 --     5 C    1.219     8 C    1.218    18 H    0.908
     8   6 C    3.950 --     9 C    1.299    13 C    1.223     7 N    1.218
     9   6 C    3.931 --    10 C    1.460     8 C    1.299    19 H    0.960
    10   6 C    3.949 --     9 C    1.460    11 C    1.395    20 H    0.965
    11   6 C    3.904 --    10 C    1.395    12 C    1.378    21 H    0.964
    12   6 C    3.955 --    13 C    1.420    11 C    1.378    22 H    0.962
    13   6 C    3.969 --    12 C    1.420     8 C    1.223     4 C    1.117
    14   1 H    0.992 --     1 C    0.965
    15   1 H    0.991 --     2 C    0.964
    16   1 H    0.991 --     3 C    0.962
    17   1 H    0.991 --     6 C    0.960
    18   1 H    0.936 --     7 N    0.908
    19   1 H    0.991 --     9 C    0.960
    20   1 H    0.992 --    10 C    0.965
    21   1 H    0.991 --    11 C    0.964
    22   1 H    0.991 --    12 C    0.962
 ---------------------------------------------------------------------------

Topologies differ in total number of bonds
Writing topology from bond orders to xtbtopo.mol

molecular dipole:
                 x           y           z       tot (Debye)
 q only:       -0.080       0.801       0.035
   full:       -0.099       0.990       0.043       2.531
molecular quadrupole (traceless):
                xx          xy          yy          xz          yz          zz
 q only:       17.828       1.403       3.125       1.800       1.230     -20.953
  q+dip:       19.096       0.992       8.281       2.124       1.773     -27.377
   full:       16.532       1.071       5.121       1.760       1.347     -21.653


           -------------------------------------------------
          | TOTAL ENERGY              -32.839587222217 Eh   |
          | GRADIENT NORM               0.049219514554 Eh/α |
          | HOMO-LUMO GAP               3.533453948297 eV   |
           -------------------------------------------------

------------------------------------------------------------------------
 * finished run on 2026/09/27 at 21:41:10.666     
------------------------------------------------------------------------
 total:
 * wall-time:     0 d,  0 h,  0 min,  0.048 sec
 *  cpu-time:     0 d,  0 h,  0 min,  0.016 sec
 * ratio c/w:     0.328 speedup
 SCF:
 * wall-time:     0 d,  0 h,  0 min,  0.027 sec
 *  cpu-time:     0 d,  0 h,  0 min,  0.016 sec
 * ratio c/w:     0.585 speedup

