      -----------------------------------------------------------      
     |                   =====================                   |     
     |                           x T B                           |     
     |                   =====================                   |     
     |                         S. Grimme                         |     
     |          Mulliken Center for Theoretical Chemistry        |     
     |                    University of Bonn                     |     
      -----------------------------------------------------------      

   * xtb version 6.7.1 (edcfbbe) compiled by 'VssAdministrator@runnervm171ch' on 2026-06-10

   xtb is free software: you can redistribute it and/or modify it under
   the terms of the GNU Lesser General Public License as published by
   the Free Software Foundation, either version 3 of the License, or
   (at your option) any later version.
   
   xtb is distributed in the hope that it will be useful,
   but WITHOUT ANY WARRANTY; without even the implied warranty of
   MERCHANTABILITY or FITNESS FOR A PARTICULAR PURPOSE.  See the
   GNU Lesser General Public License for more details.
   
   Cite this work as:
   * C. Bannwarth, E. Caldeweyher, S. Ehlert, A. Hansen, P. Pracht,
     J. Seibert, S. Spicher, S. Grimme, WIREs Comput. Mol. Sci., 2020, 11,
     e01493. DOI: 10.1002/wcms.1493
   
   for GFN2-xTB:
   * C. Bannwarth, S. Ehlert and S. Grimme., J. Chem. Theory Comput., 2019,
     15, 1652-1671. DOI: 10.1021/acs.jctc.8b01176
   for GFN1-xTB:
   * S. Grimme, C. Bannwarth, P. Shushkov, J. Chem. Theory Comput., 2017,
     13, 1989-2009. DOI: 10.1021/acs.jctc.7b00118
   for GFN0-xTB:
   * P. Pracht, E. Caldeweyher, S. Ehlert, S. Grimme, ChemRxiv, 2019, preprint.
     DOI: 10.26434/chemrxiv.8326202.v1
   for GFN-FF:
   * S. Spicher and S. Grimme, Angew. Chem. Int. Ed., 2020, 59, 15665-15673.
     DOI: 10.1002/anie.202004239
   
   for ALPB and GBSA implicit solvation:
   * S. Ehlert, M. Stahn, S. Spicher, S. Grimme, J. Chem. Theory Comput.,
     2021, 17, 4250-4261. DOI: 10.1021/acs.jctc.1c00471
   
   for ddCOSMO and CPCM-X implicit solvation:
   * M. Stahn, S. Ehlert, S. Grimme, J. Phys. Chem. A,
     2023, XX, XXXX-XXXX. DOI: 10.1021/acs.jpca.3c04382
   
   for DFT-D4:
   * E. Caldeweyher, C. Bannwarth and S. Grimme, J. Chem. Phys., 2017,
     147, 034112. DOI: 10.1063/1.4993215
   * E. Caldeweyher, S. Ehlert, A. Hansen, H. Neugebauer, S. Spicher,
     C. Bannwarth and S. Grimme, J. Chem. Phys., 2019, 150, 154122.
     DOI: 10.1063/1.5090222
   * E. Caldeweyher, J.-M. Mewes, S. Ehlert and S. Grimme, Phys. Chem. Chem. Phys.
     2020, 22, 8499-8512. DOI: 10.1039/D0CP00502A
   
   for sTDA-xTB:
   * S. Grimme and C. Bannwarth, J. Chem. Phys., 2016, 145, 054103.
     DOI: 10.1063/1.4959605
   
   in the mass-spec context:
   * V. Asgeirsson, C. Bauer and S. Grimme, Chem. Sci., 2017, 8, 4879.
     DOI: 10.1039/c7sc00601b
   * J. Koopman and S. Grimme, ACS Omega 2019, 4, 12, 15120-15133.
     DOI: 10.1021/acsomega.9b02011
   
   for metadynamics refer to:
   * S. Grimme, J. Chem. Theory Comput., 2019, 155, 2847-2862
     DOI: 10.1021/acs.jctc.9b00143
   
   for SPH calculations refer to:
   * S. Spicher and S. Grimme, J. Chem. Theory Comput., 2021, 17, 1701-1714
     DOI: 10.1021/acs.jctc.0c01306
   
   for ONIOM refer to:
   * C. Plett, A. Katbashev, S. Ehlert, S. Grimme, M. Bursch,
     Phys. Chem. Chem. Phys., 2023, 25, 17860-17868. DOI: 10.1039/D3CP02178E
   
   for DIPRO refer to:
   * J. Kohn, N. Gildemeister, S. Grimme, D. Fazzi, A. Hansen,
     J. Chem. Phys., 2023, just accepted.
   
   for PTB refer to:
   * S. Grimme, M. Mueller, A. Hansen, J. Chem. Phys., 2023, 158, 124111.
     DOI: 10.1063/5.0137838
   
   with help from (in alphabetical order)
   P. Atkinson, C. Bannwarth, F. Bohle, G. Brandenburg, E. Caldeweyher
   M. Checinski, S. Dohm, S. Ehlert, S. Ehrlich, I. Gerasimov, C. Hölzer
   A. Katbashev, J. Kohn, J. Koopman, C. Lavigne, S. Lehtola, F. März, M. Müller,
   F. Musil, H. Neugebauer, J. Pisarek, C. Plett, P. Pracht, F. Pultar,
   J. Seibert, P. Shushkov, S. Spicher, M. Stahn, M. Steiner, T. Strunk,
   J. Stückrath, T. Rose, and J. Unsleber
   
 * started run on 2026/09/27 at 14:01:47.366     
   ID    Z sym.   atoms
    1    6 C      1, 3-10
    2    7 N      2
    3    1 H      11-19

           -------------------------------------------------
          |                Calculation Setup                |
           -------------------------------------------------

          program call               : xtb input.xyz --gfn 2 --chrg 1 --uhf 1 --scc --json --parallel 1 --norestart
          coordinate file            : input.xyz
          omp threads                :                     1


           -------------------------------------------------
          |                 G F N 2 - x T B                 |
           -------------------------------------------------

        Reference                      10.1021/acs.jctc.8b01176
      * Hamiltonian:
        H0-scaling (s, p, d)           1.850000    2.230000    2.230000
        zeta-weighting                 0.500000
      * Dispersion:
        s8                             2.700000
        a1                             0.520000
        a2                             5.000000
        s9                             5.000000
      * Repulsion:
        kExp                           1.500000    1.000000
        rExp                           1.000000
      * Coulomb:
        alpha                          2.000000
        third order                    shell-resolved
        anisotropic                    true
        a3                             3.000000
        a5                             4.000000
        cn-shift                       1.200000
        cn-exp                         4.000000
        max-rad                        5.000000


          ...................................................
          :                      SETUP                      :
          :.................................................:
          :  # basis functions                  49          :
          :  # atomic orbitals                  49          :
          :  # shells                           29          :
          :  # electrons                        49          :
          :  max. iterations                   250          :
          :  Hamiltonian                  GFN2-xTB          :
          :  restarted?                      false          :
          :  GBSA solvation                  false          :
          :  PC potential                    false          :
          :  electronic temp.          300.0000000     K    :
          :  accuracy                    1.0000000          :
          :  -> integral cutoff          0.2500000E+02      :
          :  -> integral neglect         0.1000000E-07      :
          :  -> SCF convergence          0.1000000E-05 Eh   :
          :  -> wf. convergence          0.1000000E-03 e    :
          :  Broyden damping             0.4000000          :
          :  net charge                          1          :
          :  unpaired electrons                  1          :
          ...................................................

 iter      E             dE          RMSdq      gap      omega  full diag
   1    -26.7191215 -0.267191E+02  0.468E+00    3.31       0.0  T
   2    -26.7871671 -0.680456E-01  0.345E+00    3.81       1.0  T
   3    -26.8020439 -0.148767E-01  0.174E+00    3.58       1.0  T
   4    -26.8029559 -0.912030E-03  0.776E-01    3.78       1.0  T
   5    -26.8111153 -0.815940E-02  0.210E-01    3.67       1.0  T
   6    -26.8115822 -0.466907E-03  0.143E-01    3.71       1.0  T
   7    -26.8120232 -0.440995E-03  0.550E-02    3.70       1.0  T
   8    -26.8120534 -0.301830E-04  0.268E-02    3.70       1.0  T
   9    -26.8120561 -0.274976E-05  0.135E-02    3.70       1.7  T
  10    -26.8120591 -0.297117E-05  0.272E-03    3.70       8.4  T
  11    -26.8120592 -0.138895E-06  0.899E-04    3.70      25.5  T
  12    -26.8120592 -0.432456E-08  0.416E-04    3.70      55.2  T

   *** convergence criteria satisfied after 12 iterations ***

         #    Occupation            Energy/Eh            Energy/eV
      -------------------------------------------------------------
         1        2.0000           -0.8717388             -23.7212
       ...           ...                  ...                  ...
        19        2.0000           -0.6362509             -17.3133
        20        2.0000           -0.6353048             -17.2875
        21        2.0000           -0.6095339             -16.5863
        22        2.0000           -0.6061814             -16.4950
        23        2.0000           -0.5958474             -16.2138
        24        1.9978           -0.5703238             -15.5193
        25        1.0022           -0.5587249             -15.2037 (HOMO)
        26                         -0.4227738             -11.5043 (LUMO)
        27                         -0.3853930             -10.4871
        28                         -0.3514726              -9.5641
        29                         -0.2599957              -7.0748
        30                         -0.1680297              -4.5723
       ...                                ...                  ...
        49                          0.5370396              14.6136
      -------------------------------------------------------------
                  HL-Gap            0.1359511 Eh            3.6994 eV
             Fermi-level           -0.5276369 Eh          -14.3577 eV

 SCC (total)                   0 d,  0 h,  0 min,  0.023 sec
 SCC setup                      ...        0 min,  0.001 sec (  2.329%)
 Dispersion                     ...        0 min,  0.000 sec (  0.971%)
 classical contributions        ...        0 min,  0.000 sec (  0.323%)
 integral evaluation            ...        0 min,  0.003 sec ( 12.002%)
 iterations                     ...        0 min,  0.013 sec ( 56.462%)
 molecular gradient             ...        0 min,  0.006 sec ( 25.946%)
 printout                       ...        0 min,  0.000 sec (  1.829%)

         :::::::::::::::::::::::::::::::::::::::::::::::::::::
         ::                     SUMMARY                     ::
         :::::::::::::::::::::::::::::::::::::::::::::::::::::
         :: total energy             -26.330662713851 Eh    ::
         :: gradient norm              0.070064770153 Eh/a0 ::
         :: HOMO-LUMO gap              3.699418142084 eV    ::
         ::.................................................::
         :: SCC energy               -26.812010008638 Eh    ::
         :: -> isotropic ES            0.081214252530 Eh    ::
         :: -> anisotropic ES         -0.015501888107 Eh    ::
         :: -> anisotropic XC          0.020198861784 Eh    ::
         :: -> dispersion             -0.015376066373 Eh    ::
         :: repulsion energy           0.481347294788 Eh    ::
         :: add. restraining           0.000000000000 Eh    ::
         :: total charge               1.000000000000 e     ::
         :::::::::::::::::::::::::::::::::::::::::::::::::::::

           -------------------------------------------------
          |                Property Printout                |
           -------------------------------------------------

    * Orbital Energies and Occupations

         #    Occupation            Energy/Eh            Energy/eV
      -------------------------------------------------------------
         1        2.0000           -0.8717388             -23.7212
       ...           ...                  ...                  ...
        13        2.0000           -0.6828671             -18.5818
        14        2.0000           -0.6712335             -18.2652
        15        2.0000           -0.6645950             -18.0846
        16        2.0000           -0.6633371             -18.0503
        17        2.0000           -0.6545013             -17.8099
        18        2.0000           -0.6457345             -17.5713
        19        2.0000           -0.6362509             -17.3133
        20        2.0000           -0.6353048             -17.2875
        21        2.0000           -0.6095339             -16.5863
        22        2.0000           -0.6061814             -16.4950
        23        2.0000           -0.5958474             -16.2138
        24        1.9978           -0.5703238             -15.5193
        25        1.0022           -0.5587249             -15.2037 (HOMO)
        26                         -0.4227738             -11.5043 (LUMO)
        27                         -0.3853930             -10.4871
        28                         -0.3514726              -9.5641
        29                         -0.2599957              -7.0748
        30                         -0.1680297              -4.5723
        31                         -0.0631829              -1.7193
        32                         -0.0577618              -1.5718
        33                         -0.0408500              -1.1116
        34                         -0.0250492              -0.6816
        35                         -0.0110071              -0.2995
        36                         -0.0093738              -0.2551
       ...                                ...                  ...
        49                          0.5370396              14.6136
      -------------------------------------------------------------
                  HL-Gap            0.1359511 Eh            3.6994 eV
             Fermi-level           -0.5276369 Eh          -14.3577 eV

     #   Z          covCN         q      C6AA      α(0)
     1   6 C        3.690    -0.082    22.273     6.754
     2   7 N        2.820     0.075    19.943     6.633
     3   6 C        3.051     0.021    27.491     8.599
     4   6 C        3.008    -0.001    28.038     8.686
     5   6 C        3.116     0.008    27.668     8.616
     6   6 C        2.911     0.018    27.600     8.615
     7   6 C        2.919    -0.009    28.235     8.714
     8   6 C        2.923    -0.000    28.039     8.684
     9   6 C        2.908     0.000    28.029     8.681
    10   6 C        3.108     0.044    26.863     8.492
    11   1 H        0.924     0.114     1.665     2.018
    12   1 H        0.924     0.114     1.665     2.018
    13   1 H        0.925     0.105     1.738     2.062
    14   1 H        0.926     0.104     1.750     2.069
    15   1 H        0.926     0.108     1.711     2.046
    16   1 H        0.926     0.099     1.798     2.097
    17   1 H        0.926     0.096     1.819     2.109
    18   1 H        0.926     0.097     1.814     2.106
    19   1 H        0.926     0.089     1.884     2.147

 Mol. C6AA /au·bohr⁶  :       3995.727031
 Mol. C8AA /au·bohr⁸  :      98748.233934
 Mol. α(0) /au        :        101.143507


Wiberg/Mayer (AO) data.
largest (>0.10) Wiberg bond orders for each atom

 ---------------------------------------------------------------------------
     #   Z sym  total        # sym  WBO       # sym  WBO       # sym  WBO
 ---------------------------------------------------------------------------
     1   6 C    3.943 --     2 N    1.017    13 H    0.974    11 H    0.942
                            12 H    0.942
     2   7 N    3.704 --     3 C    1.329    10 C    1.130     1 C    1.017
     3   6 C    3.951 --     4 C    1.430     2 N    1.329    14 H    0.959
     4   6 C    3.907 --     3 C    1.430     5 C    1.238    15 H    0.962
     5   6 C    3.987 --     6 C    1.319    10 C    1.244     4 C    1.238
     6   6 C    3.938 --     7 C    1.396     5 C    1.319    16 H    0.960
     7   6 C    3.977 --     8 C    1.450     6 C    1.396    17 H    0.962
     8   6 C    3.973 --     7 C    1.450     9 C    1.367    18 H    0.963
     9   6 C    3.956 --    10 C    1.375     8 C    1.367    19 H    0.960
    10   6 C    3.960 --     9 C    1.375     5 C    1.244     2 N    1.130
    11   1 H    0.986 --     1 C    0.942
    12   1 H    0.986 --     1 C    0.942
    13   1 H    0.989 --     1 C    0.974
    14   1 H    0.988 --     3 C    0.959
    15   1 H    0.988 --     4 C    0.962
    16   1 H    0.990 --     6 C    0.960
    17   1 H    0.990 --     7 C    0.962
    18   1 H    0.990 --     8 C    0.963
    19   1 H    0.992 --     9 C    0.960
 ---------------------------------------------------------------------------

Topologies differ in total number of bonds
Writing topology from bond orders to xtbtopo.mol

molecular dipole:
                 x           y           z       tot (Debye)
 q only:       -0.461       0.011      -0.022
   full:       -0.573       0.030      -0.030       1.462
molecular quadrupole (traceless):
                xx          xy          yy          xz          yz          zz
 q only:       13.554       0.238       1.103       1.112      -3.168     -14.657
  q+dip:       14.685      -0.069       3.305       1.347      -4.303     -17.990
   full:       13.009       0.036       1.454       1.119      -3.210     -14.464


           -------------------------------------------------
          | TOTAL ENERGY              -26.330662713851 Eh   |
          | GRADIENT NORM               0.070064770153 Eh/α |
          | HOMO-LUMO GAP               3.699418142084 eV   |
           -------------------------------------------------

------------------------------------------------------------------------
 * finished run on 2026/09/27 at 14:01:47.418     
------------------------------------------------------------------------
 total:
 * wall-time:     0 d,  0 h,  0 min,  0.051 sec
 *  cpu-time:     0 d,  0 h,  0 min,  0.000 sec
 * ratio c/w:     0.000 speedup
 SCF:
 * wall-time:     0 d,  0 h,  0 min,  0.023 sec
 *  cpu-time:     0 d,  0 h,  0 min,  0.000 sec
 * ratio c/w:     0.000 speedup

