      -----------------------------------------------------------      
     |                   =====================                   |     
     |                           x T B                           |     
     |                   =====================                   |     
     |                         S. Grimme                         |     
     |          Mulliken Center for Theoretical Chemistry        |     
     |                    University of Bonn                     |     
      -----------------------------------------------------------      

   * xtb version 6.7.1 (edcfbbe) compiled by 'VssAdministrator@runnervm171ch' on 2026-06-10

   xtb is free software: you can redistribute it and/or modify it under
   the terms of the GNU Lesser General Public License as published by
   the Free Software Foundation, either version 3 of the License, or
   (at your option) any later version.
   
   xtb is distributed in the hope that it will be useful,
   but WITHOUT ANY WARRANTY; without even the implied warranty of
   MERCHANTABILITY or FITNESS FOR A PARTICULAR PURPOSE.  See the
   GNU Lesser General Public License for more details.
   
   Cite this work as:
   * C. Bannwarth, E. Caldeweyher, S. Ehlert, A. Hansen, P. Pracht,
     J. Seibert, S. Spicher, S. Grimme, WIREs Comput. Mol. Sci., 2020, 11,
     e01493. DOI: 10.1002/wcms.1493
   
   for GFN2-xTB:
   * C. Bannwarth, S. Ehlert and S. Grimme., J. Chem. Theory Comput., 2019,
     15, 1652-1671. DOI: 10.1021/acs.jctc.8b01176
   for GFN1-xTB:
   * S. Grimme, C. Bannwarth, P. Shushkov, J. Chem. Theory Comput., 2017,
     13, 1989-2009. DOI: 10.1021/acs.jctc.7b00118
   for GFN0-xTB:
   * P. Pracht, E. Caldeweyher, S. Ehlert, S. Grimme, ChemRxiv, 2019, preprint.
     DOI: 10.26434/chemrxiv.8326202.v1
   for GFN-FF:
   * S. Spicher and S. Grimme, Angew. Chem. Int. Ed., 2020, 59, 15665-15673.
     DOI: 10.1002/anie.202004239
   
   for ALPB and GBSA implicit solvation:
   * S. Ehlert, M. Stahn, S. Spicher, S. Grimme, J. Chem. Theory Comput.,
     2021, 17, 4250-4261. DOI: 10.1021/acs.jctc.1c00471
   
   for ddCOSMO and CPCM-X implicit solvation:
   * M. Stahn, S. Ehlert, S. Grimme, J. Phys. Chem. A,
     2023, XX, XXXX-XXXX. DOI: 10.1021/acs.jpca.3c04382
   
   for DFT-D4:
   * E. Caldeweyher, C. Bannwarth and S. Grimme, J. Chem. Phys., 2017,
     147, 034112. DOI: 10.1063/1.4993215
   * E. Caldeweyher, S. Ehlert, A. Hansen, H. Neugebauer, S. Spicher,
     C. Bannwarth and S. Grimme, J. Chem. Phys., 2019, 150, 154122.
     DOI: 10.1063/1.5090222
   * E. Caldeweyher, J.-M. Mewes, S. Ehlert and S. Grimme, Phys. Chem. Chem. Phys.
     2020, 22, 8499-8512. DOI: 10.1039/D0CP00502A
   
   for sTDA-xTB:
   * S. Grimme and C. Bannwarth, J. Chem. Phys., 2016, 145, 054103.
     DOI: 10.1063/1.4959605
   
   in the mass-spec context:
   * V. Asgeirsson, C. Bauer and S. Grimme, Chem. Sci., 2017, 8, 4879.
     DOI: 10.1039/c7sc00601b
   * J. Koopman and S. Grimme, ACS Omega 2019, 4, 12, 15120-15133.
     DOI: 10.1021/acsomega.9b02011
   
   for metadynamics refer to:
   * S. Grimme, J. Chem. Theory Comput., 2019, 155, 2847-2862
     DOI: 10.1021/acs.jctc.9b00143
   
   for SPH calculations refer to:
   * S. Spicher and S. Grimme, J. Chem. Theory Comput., 2021, 17, 1701-1714
     DOI: 10.1021/acs.jctc.0c01306
   
   for ONIOM refer to:
   * C. Plett, A. Katbashev, S. Ehlert, S. Grimme, M. Bursch,
     Phys. Chem. Chem. Phys., 2023, 25, 17860-17868. DOI: 10.1039/D3CP02178E
   
   for DIPRO refer to:
   * J. Kohn, N. Gildemeister, S. Grimme, D. Fazzi, A. Hansen,
     J. Chem. Phys., 2023, just accepted.
   
   for PTB refer to:
   * S. Grimme, M. Mueller, A. Hansen, J. Chem. Phys., 2023, 158, 124111.
     DOI: 10.1063/5.0137838
   
   with help from (in alphabetical order)
   P. Atkinson, C. Bannwarth, F. Bohle, G. Brandenburg, E. Caldeweyher
   M. Checinski, S. Dohm, S. Ehlert, S. Ehrlich, I. Gerasimov, C. Hölzer
   A. Katbashev, J. Kohn, J. Koopman, C. Lavigne, S. Lehtola, F. März, M. Müller,
   F. Musil, H. Neugebauer, J. Pisarek, C. Plett, P. Pracht, F. Pultar,
   J. Seibert, P. Shushkov, S. Spicher, M. Stahn, M. Steiner, T. Strunk,
   J. Stückrath, T. Rose, and J. Unsleber
   
 * started run on 2026/09/27 at 14:01:45.734     
   ID    Z sym.   atoms
    1    6 C      1, 3-8
    2    8 O      2
    3    1 H      9-16

           -------------------------------------------------
          |                Calculation Setup                |
           -------------------------------------------------

          program call               : xtb input.xyz --gfn 2 --alpb acetonitrile --chrg -1 --uhf 1 --scc --json --parallel 1 --norestart
          coordinate file            : input.xyz
          omp threads                :                     1


           -------------------------------------------------
          |                 G F N 2 - x T B                 |
           -------------------------------------------------

        Reference                      10.1021/acs.jctc.8b01176
      * Hamiltonian:
        H0-scaling (s, p, d)           1.850000    2.230000    2.230000
        zeta-weighting                 0.500000
      * Dispersion:
        s8                             2.700000
        a1                             0.520000
        a2                             5.000000
        s9                             5.000000
      * Repulsion:
        kExp                           1.500000    1.000000
        rExp                           1.000000
      * Coulomb:
        alpha                          2.000000
        third order                    shell-resolved
        anisotropic                    true
        a3                             3.000000
        a5                             4.000000
        cn-shift                       1.200000
        cn-exp                         4.000000
        max-rad                        5.000000

      * Solvation model:               ALPB
        Solvent                        acetonitrile
        Parameter file                 internal GFN2-xTB/ALPB
        Dielectric constant                3.7500E+01
        Reference state                gsolv [1 M gas/solution]
        Free energy shift                  5.1987E-03 Eh       3.2622E+00 kcal/mol
        Temperature                        2.9815E+02 K
        Density                            7.8600E-01 kg/L
        Solvent mass                       4.1050E+01 g/mol
        Interaction kernel             P16
        Born radius scaling (c1)           1.7214E+00
        Born radii integrator          GBOBC
        Born offset                        0.0000E+00 a0       0.0000E+00 AA
        H-bond correction              true
        Ion screening                  false
        Surface tension                    1.0000E-05 Eh       1.5569E+01 dyn/cm
        Grid points                               230 per atom

          ...................................................
          :                      SETUP                      :
          :.................................................:
          :  # basis functions                  40          :
          :  # atomic orbitals                  40          :
          :  # shells                           24          :
          :  # electrons                        43          :
          :  max. iterations                   250          :
          :  Hamiltonian                  GFN2-xTB          :
          :  restarted?                      false          :
          :  GBSA solvation                   true          :
          :  PC potential                    false          :
          :  electronic temp.          300.0000000     K    :
          :  accuracy                    1.0000000          :
          :  -> integral cutoff          0.2500000E+02      :
          :  -> integral neglect         0.1000000E-07      :
          :  -> SCF convergence          0.1000000E-05 Eh   :
          :  -> wf. convergence          0.1000000E-03 e    :
          :  Broyden damping             0.4000000          :
          :  net charge                         -1          :
          :  unpaired electrons                  1          :
          ...................................................

 iter      E             dE          RMSdq      gap      omega  full diag
   1    -23.5942990 -0.235943E+02  0.403E+00    0.37       0.0  T
   2    -23.6048187 -0.105197E-01  0.333E+00    0.25       1.0  T
   3    -23.6366014 -0.317828E-01  0.210E+00    0.45       1.0  T
   4    -23.6586405 -0.220391E-01  0.699E-01    0.08       1.0  T
   5    -23.6546201  0.402039E-02  0.787E-01    0.09       1.0  T
   6    -23.6587339 -0.411377E-02  0.285E-01    0.07       1.0  T
   7    -23.6592430 -0.509091E-03  0.912E-02    0.06       1.0  T
   8    -23.6592856 -0.426524E-04  0.296E-02    0.06       1.0  T
   9    -23.6592886 -0.299899E-05  0.139E-02    0.06       1.8  T
  10    -23.6592892 -0.622081E-06  0.853E-03    0.06       2.9  T
  11    -23.6592896 -0.349417E-06  0.158E-03    0.06      15.9  T
  12    -23.6592896 -0.151761E-07  0.554E-04    0.06      45.1  T
  13    -23.6592896 -0.102094E-08  0.211E-04    0.06     118.2  T

   *** convergence criteria satisfied after 13 iterations ***

         #    Occupation            Energy/Eh            Energy/eV
      -------------------------------------------------------------
         1        2.0000           -0.6621317             -18.0175
       ...           ...                  ...                  ...
        16        2.0000           -0.3868728             -10.5273
        17        2.0000           -0.3665248              -9.9736
        18        2.0000           -0.3559068              -9.6847
        19        2.0000           -0.3435179              -9.3476
        20        2.0000           -0.3056088              -8.3160
        21        2.0000           -0.2943223              -8.0089
        22        0.7505           -0.1256452              -3.4190 (HOMO)
        23        0.2495           -0.1235531              -3.3621 (LUMO)
        24                          0.0044369               0.1207
        25                          0.0800418               2.1780
        26                          0.1465092               3.9867
        27                          0.1698498               4.6218
       ...                                ...                  ...
        40                          0.7613399              20.7171
      -------------------------------------------------------------
                  HL-Gap            0.0020921 Eh            0.0569 eV
             Fermi-level           -0.1672914 Eh           -4.5522 eV

 SCC (total)                   0 d,  0 h,  0 min,  0.017 sec
 SCC setup                      ...        0 min,  0.001 sec (  4.090%)
 Dispersion                     ...        0 min,  0.000 sec (  0.790%)
 classical contributions        ...        0 min,  0.000 sec (  0.221%)
 integral evaluation            ...        0 min,  0.002 sec (  9.350%)
 iterations                     ...        0 min,  0.010 sec ( 61.361%)
 molecular gradient             ...        0 min,  0.004 sec ( 22.070%)
 printout                       ...        0 min,  0.000 sec (  2.020%)

         :::::::::::::::::::::::::::::::::::::::::::::::::::::
         ::                     SUMMARY                     ::
         :::::::::::::::::::::::::::::::::::::::::::::::::::::
         :: total energy             -23.295355896918 Eh    ::
         :: total w/o Gsasa/hb       -23.286738190871 Eh    ::
         :: gradient norm              0.087220057797 Eh/a0 ::
         :: HOMO-LUMO gap              0.056929905424 eV    ::
         ::.................................................::
         :: SCC energy               -23.659276997519 Eh    ::
         :: -> isotropic ES            0.132092282464 Eh    ::
         :: -> anisotropic ES          0.018361385636 Eh    ::
         :: -> anisotropic XC          0.006111530604 Eh    ::
         :: -> dispersion             -0.013447012976 Eh    ::
         :: -> Gsolv                  -0.079333224792 Eh    ::
         ::    -> Gelec               -0.070715518745 Eh    ::
         ::    -> Gsasa               -0.013265936840 Eh    ::
         ::    -> Ghb                 -0.000550423959 Eh    ::
         ::    -> Gshift               0.005198654751 Eh    ::
         :: repulsion energy           0.363921100601 Eh    ::
         :: add. restraining           0.000000000000 Eh    ::
         :: total charge              -1.000000000000 e     ::
         :::::::::::::::::::::::::::::::::::::::::::::::::::::

           -------------------------------------------------
          |                Property Printout                |
           -------------------------------------------------

    * Orbital Energies and Occupations

         #    Occupation            Energy/Eh            Energy/eV
      -------------------------------------------------------------
         1        2.0000           -0.6621317             -18.0175
       ...           ...                  ...                  ...
        10        2.0000           -0.4730453             -12.8722
        11        2.0000           -0.4432820             -12.0623
        12        2.0000           -0.4383541             -11.9282
        13        2.0000           -0.4231340             -11.5141
        14        2.0000           -0.4052713             -11.0280
        15        2.0000           -0.3966135             -10.7924
        16        2.0000           -0.3868728             -10.5273
        17        2.0000           -0.3665248              -9.9736
        18        2.0000           -0.3559068              -9.6847
        19        2.0000           -0.3435179              -9.3476
        20        2.0000           -0.3056088              -8.3160
        21        2.0000           -0.2943223              -8.0089
        22        0.7505           -0.1256452              -3.4190 (HOMO)
        23        0.2495           -0.1235531              -3.3621 (LUMO)
        24                          0.0044369               0.1207
        25                          0.0800418               2.1780
        26                          0.1465092               3.9867
        27                          0.1698498               4.6218
        28                          0.1972115               5.3664
        29                          0.2190166               5.9597
        30                          0.2196683               5.9775
        31                          0.2392878               6.5114
        32                          0.2562767               6.9736
        33                          0.2749970               7.4830
       ...                                ...                  ...
        40                          0.7613399              20.7171
      -------------------------------------------------------------
                  HL-Gap            0.0020921 Eh            0.0569 eV
             Fermi-level           -0.1672914 Eh           -4.5522 eV

     #   Z          covCN         q      C6AA      α(0)
     1   6 C        3.642     0.058    19.944     6.421
     2   8 O        1.705    -0.341    19.715     5.995
     3   6 C        2.864     0.086    26.072     8.370
     4   6 C        2.920    -0.126    31.213     9.162
     5   6 C        2.920    -0.095    30.401     9.042
     6   6 C        2.918    -0.082    30.043     8.988
     7   6 C        2.921    -0.103    30.595     9.071
     8   6 C        2.917    -0.130    31.325     9.178
     9   1 H        0.925     0.041     2.442     2.444
    10   1 H        0.924     0.020     2.741     2.589
    11   1 H        0.924     0.019     2.742     2.590
    12   1 H        0.926    -0.065     4.481     3.310
    13   1 H        0.926    -0.073     4.694     3.388
    14   1 H        0.926    -0.068     4.572     3.344
    15   1 H        0.926    -0.077     4.809     3.429
    16   1 H        0.926    -0.064     4.457     3.301

 Mol. C6AA /au·bohr⁶  :       3275.392199
 Mol. C8AA /au·bohr⁸  :      75225.654407
 Mol. α(0) /au        :         90.620008


Wiberg/Mayer (AO) data.
largest (>0.10) Wiberg bond orders for each atom

 ---------------------------------------------------------------------------
     #   Z sym  total        # sym  WBO       # sym  WBO       # sym  WBO
 ---------------------------------------------------------------------------
     1   6 C    3.965 --     2 O    0.998     9 H    0.982    11 H    0.977
                            10 H    0.977
     2   8 O    2.122 --     1 C    0.998     3 C    0.981
     3   6 C    3.768 --     8 C    1.361     4 C    1.310     2 O    0.981
     4   6 C    3.762 --     3 C    1.310     5 C    1.289    12 H    0.968
     5   6 C    3.783 --     6 C    1.385     4 C    1.289    13 H    0.968
     6   6 C    3.843 --     5 C    1.385     7 C    1.377    14 H    0.969
     7   6 C    3.763 --     6 C    1.377     8 C    1.266    15 H    0.968
     8   6 C    3.781 --     3 C    1.361     7 C    1.266    16 H    0.965
     9   1 H    0.998 --     1 C    0.982
    10   1 H    0.999 --     1 C    0.977
    11   1 H    0.999 --     1 C    0.977
    12   1 H    0.996 --     4 C    0.968
    13   1 H    0.994 --     5 C    0.968
    14   1 H    0.995 --     6 C    0.969
    15   1 H    0.994 --     7 C    0.968
    16   1 H    0.996 --     8 C    0.965
 ---------------------------------------------------------------------------

Topologies differ in total number of bonds
Writing topology from bond orders to xtbtopo.mol

molecular dipole:
                 x           y           z       tot (Debye)
 q only:       -1.872      -0.416      -0.620
   full:       -1.922      -0.563      -0.666       5.365
molecular quadrupole (traceless):
                xx          xy          yy          xz          yz          zz
 q only:       -4.256       2.132      -2.662      -1.938      -2.571       6.918
  q+dip:       -3.661       2.362      -0.925      -1.420      -1.467       4.586
   full:       -3.462       2.595      -1.699      -1.427      -1.798       5.161


           -------------------------------------------------
          | TOTAL ENERGY              -23.295355896918 Eh   |
          | GRADIENT NORM               0.087220057797 Eh/α |
          | HOMO-LUMO GAP               0.056929905424 eV   |
           -------------------------------------------------

------------------------------------------------------------------------
 * finished run on 2026/09/27 at 14:01:45.775     
------------------------------------------------------------------------
 total:
 * wall-time:     0 d,  0 h,  0 min,  0.039 sec
 *  cpu-time:     0 d,  0 h,  0 min,  0.000 sec
 * ratio c/w:     0.000 speedup
 SCF:
 * wall-time:     0 d,  0 h,  0 min,  0.017 sec
 *  cpu-time:     0 d,  0 h,  0 min,  0.000 sec
 * ratio c/w:     0.000 speedup

